9
Properties=species:S:1:pos:R:3 config_type=ethanol_monomer pbc="F F F"
C        1.22195780      -0.38175866      -0.00000000
C        0.05377680       0.57808534      -0.00000000
O       -1.13630620      -0.20904566      -0.00000000
H       -1.89284620       0.40014834      -0.00000000
H        0.09633380       1.22613134       0.88693300
H        0.09633380       1.22613134      -0.88693300
H        2.16966780       0.16342334      -0.00000000
H        1.18237580      -1.01861066       0.88588100
H        1.18237580      -1.01861066      -0.88588100
