9
Lattice="20.062514 0.0 0.0 0.0 20.062514 0.0 0.0 0.0 20.062514" Properties=species:S:1:pos:R:3 config_type=ethanol_x1 n_molecules=1 molecule=C2H6O pbc="T T T"
C       11.12234781       9.53781171      10.06968236
C        9.95291701      10.47344184      10.05295270
O        8.83478000       9.77527586       9.98903289
H        7.92407471      10.29024853      10.03373656
H        9.84967815      11.14050050      10.84343534
H        9.94524396      11.12097246       9.12534599
H       12.08721183      10.15347080      10.02354492
H       11.15720981       8.86897432      10.93822860
H       11.12943021       8.91452674       9.10076605
9
Lattice="20.062514 0.0 0.0 0.0 20.062514 0.0 0.0 0.0 20.062514" Properties=species:S:1:pos:R:3 config_type=ethanol_x1 n_molecules=1 molecule=C2H6O pbc="T T T"
C       11.05950048       9.51827445      10.04446871
C        9.88604591      10.49303147      10.02170350
O        8.78899074       9.73133055      10.05257936
H        7.96077028      10.31986818      10.07829553
H       10.07878587      11.07808407      11.00902543
H       10.06993253      11.20050668       9.16019134
H       12.04367863      10.17840124      10.14887250
H       11.18332009       8.98779223      10.93858082
H       11.00272288       8.90861875       9.18476450
9
Lattice="20.062514 0.0 0.0 0.0 20.062514 0.0 0.0 0.0 20.062514" Properties=species:S:1:pos:R:3 config_type=ethanol_x1 n_molecules=1 molecule=C2H6O pbc="T T T"
C       11.03750231       9.56944532      10.05704882
C        9.98838556      10.43453492       9.99155485
O        8.73035389       9.64826289      10.13561907
H        7.97024536      10.34738318      10.01574265
H       10.08418837      11.23284966      10.95619116
H        9.85696941      11.15674974       9.18534517
H       12.12275169      10.05384558      10.14057768
H       10.99599614       8.86919432      10.97324100
H       11.07816528       9.02902956       9.15668715
9
Lattice="20.062514 0.0 0.0 0.0 20.062514 0.0 0.0 0.0 20.062514" Properties=species:S:1:pos:R:3 config_type=ethanol_x1 n_molecules=1 molecule=C2H6O pbc="T T T"
C       11.07681235       9.52308419       9.96578823
C        9.86996219      10.54340669      10.06612695
O        8.83421353       9.67317465      10.13260345
H        7.98275674      10.42210950      10.00528985
H        9.94505100      11.16861512      10.98007719
H        9.99884057      11.11849627       9.06385082
H       11.97842279      10.12108097      10.09063978
H       11.06536432       8.84442411      10.96952053
H       10.99839836       8.86610191       9.18263707
18
Lattice="23.581447263941605 0.0 0.0 0.0 23.581447263941605 0.0 0.0 0.0 23.581447263941605" Properties=species:S:1:pos:R:3 n_molecules=2 molecule=C2H6O config_type=C2H6O_x2 pbc="T T T"
C       10.84711292       9.55061261      13.36130348
C       11.84066695       8.92342306      12.40976209
O       13.02438897       8.65087895      13.15835720
H       13.66904400       8.24727589      12.55420940
H       11.42455788       8.00000000      11.98248237
H       12.05161932       9.60895891      11.57671674
H        9.91240326       9.78459883      12.84463534
H       10.63267660       8.86479690      14.18325618
H       11.25899429      10.47184742      13.77797183
C       12.71985161      13.34757335      10.13596020
C       11.35564243      13.95912795      10.36152977
O       11.55542748      15.18117480      11.07044457
H       10.68312309      15.58144726      11.21990058
H       10.85812128      14.14044578       9.39819109
H       10.72228682      13.26962641      10.93761410
H       12.63428297      12.40211816       9.59358565
H       13.34431782      14.03037216       9.55651211
H       13.20864448      13.16058568      11.09410919
18
Lattice="28.140182957571717 0.0 0.0 0.0 28.140182957571717 0.0 0.0 0.0 28.140182957571717" Properties=species:S:1:pos:R:3 n_molecules=2 molecule=C2H6O config_type=C2H6O_x2 pbc="T T T"
C       12.78745762       9.53473981      13.49001690
C       12.19616425       9.07592912      14.80371864
O       11.00650644       9.83447119      15.01632385
H       10.61943829       9.54596377      15.85918316
H       11.97434377       8.00000000      14.76375525
H       12.91559973       9.23644057      15.61923905
H       13.70766356       8.98739128      13.26863877
H       12.07462427       9.36665679      12.68035706
H       13.01476379      10.60163080      13.53482616
C       14.46087537      19.07281229      13.34226593
C       15.94642944      18.80286688      13.26348811
O       16.56496514      19.55016778      14.30982826
H       17.52074466      19.38254040      14.26673925
H       16.14243022      17.72746606      13.37977063
H       16.33478979      19.10670536      12.28099980
H       13.92691739      18.52499553      12.56113641
H       14.07576077      18.76257959      14.31559772
H       14.26789218      20.14018296      13.21813015
18
Lattice="25.714083461442648 0.0 0.0 0.0 25.714083461442648 0.0 0.0 0.0 25.714083461442648" Properties=species:S:1:pos:R:3 n_molecules=2 molecule=C2H6O config_type=C2H6O_x2 pbc="T T T"
C       16.41132944      14.34633200      13.14240885
C       16.87226638      14.10768591      14.56245552
O       17.26136178      12.73790743      14.65292344
H       17.55930833      12.57542520      15.56303194
H       17.71408346      14.77212384      14.80389104
H       16.05915681      14.33263021      15.26720919
H       16.09775455      15.38502529      13.00763244
H       17.22290561      14.13044081      12.44479329
H       15.56994188      13.69146848      12.90756190
C       10.44892333      11.39003061      11.21727489
C        9.05052317      11.77807773      11.64135482
O        8.89669092      13.16817237      11.35878575
H        8.00000000      13.42648178      11.62839980
H        8.30893445      11.18093769      11.09190527
H        8.91045508      11.57702531      12.71298149
H       10.63020818      10.32905817      11.40924087
H       10.58308973      11.58264281      10.15105153
H       11.18389689      11.97826063      11.77020497
18
Lattice="21.726665016464793 0.0 0.0 0.0 21.726665016464793 0.0 0.0 0.0 21.726665016464793" Properties=species:S:1:pos:R:3 n_molecules=2 molecule=C2H6O config_type=C2H6O_x2 pbc="T T T"
C        9.27978904      12.29143262      10.03842292
C        9.07388593      11.14659369      11.00428786
O        9.69074720      11.51999093      12.23551872
H        9.56321777      10.78940458      12.86277460
H        8.00000000      10.95781688      11.14413484
H        9.52299499      10.22710879      10.60269922
H        8.82679489      12.06530290       9.06938251
H        8.82572001      13.20150203      10.43532006
H       10.34690856      12.47166064       9.89452665
C       12.65357966       9.30681031       9.92562273
C       12.26464570      10.66706637      10.45889675
O       12.61864504      10.69310241      11.84088059
H       12.37204304      11.56446440      12.19214378
H       12.79117919      11.45612707       9.90340547
H       11.18580157      10.83127580      10.32639975
H       12.40637886       9.22318070       8.86389042
H       13.72666502       9.14927312      10.05053154
H       12.12319155       8.52516299      10.47302411
27
Lattice="25.56100686837531 0.0 0.0 0.0 25.56100686837531 0.0 0.0 0.0 25.56100686837531" Properties=species:S:1:pos:R:3 n_molecules=3 molecule=C2H6O config_type=C2H6O_x3 pbc="T T T"
C       13.38719731      13.37977994      16.70050157
C       12.15859127      14.23530739      16.48943915
O       11.35212174      13.57813200      15.51291462
H       10.55958237      14.12143091      15.37086624
H       11.61202354      14.35285357      17.43594403
H       12.45012831      15.23862146      16.14769086
H       14.05001287      13.83240025      17.44292197
H       13.09584623      12.38662544      17.04790774
H       13.93295692      13.27134271      15.76118258
C       16.65722994      11.72538518      10.06319458
C       16.27944436      10.42673702       9.38737036
O       17.37705246      10.05094167       8.55676391
H       17.14282417       9.21657488       8.11808490
H       16.07427531       9.65341404      10.14122850
H       15.36475323      10.56157910       8.79274223
H       15.85173558      12.06846006      10.71806566
H       17.56100687      11.58706966      10.65984224
H       16.85232635      12.49415754       9.31295542
C        9.08922653      15.60360034      13.74628678
C        9.57322719      14.22497566      13.35759064
O        9.13325431      13.32392107      14.37267549
H        9.44013687      12.43463624      14.13087869
H        9.16401306      13.94260684      12.37716394
H       10.66932377      14.21816358      13.27421954
H        9.39643470      16.34443199      13.00320585
H        8.00000000      15.61019672      13.82027605
H        9.50352524      15.88542662      14.71626764
27
Lattice="26.528310014477846 0.0 0.0 0.0 26.528310014477846 0.0 0.0 0.0 26.528310014477846" Properties=species:S:1:pos:R:3 n_molecules=3 molecule=C2H6O config_type=C2H6O_x3 pbc="T T T"
C       13.93874341      12.56056308       9.53160305
C       14.72563790      11.53180436       8.75160310
O       15.52240154      10.81190524       9.69116986
H       16.03197754      10.14796781       9.19823023
H       14.04151022      10.85690869       8.21783347
H       15.35621241      12.02768080       8.00000000
H       13.30402319      13.14902609       8.86360665
H       13.30698235      12.06546522      10.27166279
H       14.62012515      13.23484866      10.05408770
C       15.15452321      10.81516979      14.51832365
C       16.48132372      10.84599006      13.79403237
O       17.48896543      11.09128953      14.77401151
H       18.34580955      11.11275492      14.31703505
H       16.65554439       9.88881294      13.28228636
H       16.47670300      11.63536934      13.02899390
H       14.33618455      10.62972249      13.81738942
H       15.15831737      10.02509495      15.27178214
H       14.97968811      11.76957974      15.01879011
C       10.41533573      15.84634716      17.62571303
C        9.34547015      15.07119165      16.89054710
O        8.87103722      14.06247424      17.78120716
H        8.18250047      13.55892471      17.31663736
H        8.53026417      15.74413572      16.58886789
H        9.76225781      14.62424624      15.97678963
H       10.82161587      16.63949708      16.99228797
H        9.99724726      16.29629499      18.52831001
H       11.22777962      15.17773382      17.91695775
36
Lattice="25.83708341614062 0.0 0.0 0.0 25.83708341614062 0.0 0.0 0.0 25.83708341614062" Properties=species:S:1:pos:R:3 n_molecules=4 molecule=C2H6O config_type=C2H6O_x4 pbc="T T T"
C       10.21536716      11.01948755      16.66516886
C       10.79007618      11.60706940      15.39615173
O        9.72208466      12.26658683      14.71769495
H       10.08264141      12.64754667      13.90017521
H       11.59754649      12.31283328      15.63763447
H       11.22046543      10.81134483      14.77164203
H       10.98936685      10.49710573      17.23386857
H        9.79606754      11.81235452      17.28764950
H        9.41943375      10.31264701      16.42268423
C       12.65686804      14.32640075      12.45848498
C       13.03616393      15.78120706      12.29842069
O       12.12608585      16.35140759      11.35900490
H       12.36260131      17.28715446      11.24987955
H       12.97542124      16.29703219      13.26726517
H       14.07270583      15.86514924      11.94210698
H       13.32162816      13.83014711      13.17066752
H       11.63002925      14.24554387      12.82041951
H       12.72601234      13.81417318      11.49683311
C       12.73936354       9.39389956       8.94104914
C       12.01271426      10.40055670       9.80393359
O       11.63387838       9.72866629      11.00431662
H       11.16582803      10.36865296      11.56540132
H       12.66852485      11.25535836      10.02222571
H       11.13010763      10.78615504       9.27408047
H       13.05776432       9.85043555       8.00000000
H       13.62011543       9.01857576       9.46577813
H       12.08352295       8.54992896       8.71852027
C       15.38329073      12.90666957      16.07388704
C       15.24083385      11.57476294      16.77508467
O       16.11349408      10.65806048      16.11630285
H       16.02839929       9.79858619      16.56074961
H       15.50611710      11.67579915      17.83708342
H       14.19819730      11.23008894      16.72474858
H       14.73543634      13.65703688      16.53498491
H       16.41764967      13.25106983      16.13238824
H       15.11128120      12.80588829      15.02137276
36
Lattice="28.572321224300943 0.0 0.0 0.0 28.572321224300943 0.0 0.0 0.0 28.572321224300943" Properties=species:S:1:pos:R:3 n_molecules=4 molecule=C2H6O config_type=C2H6O_x4 pbc="T T T"
C        8.88229115      15.03900512      12.15960810
C       10.09022915      15.60013135      11.44408697
O       11.19059893      15.51574319      12.34848607
H       11.97196995      15.87452368      11.89659451
H       10.28894556      15.02492622      10.52862222
H        9.90428441      16.64220097      11.14753962
H        8.00000000      15.07586084      11.51495188
H        9.06593772      14.00153498      12.44572347
H        8.68173283      15.61689147      13.06390676
C        9.92577674      15.50320490      18.90464427
C       10.32280101      15.23034580      17.47151239
O       10.94392693      13.94606229      17.44522112
H       11.20257358      13.76227001      16.52718386
H        9.43582663      15.25127964      16.82246456
H       11.01316236      16.00814065      17.11533654
H        9.44117153      16.47938213      18.99189952
H        9.23366556      14.73432983      19.25356489
H       10.80913039      15.49029312      19.54608948
C       19.65599751      17.94981796      11.23884601
C       19.47410373      16.74985588      10.33720693
O       18.26390121      16.95166695       9.60881493
H       18.13888925      16.18456920       9.02623174
H       20.33161231      16.65479887       9.65598152
H       19.42308396      15.83000594      10.93695516
H       20.57232122      17.85498969      11.82768903
H       19.71486138      18.86122894      10.64068431
H       18.80741064      18.03741431      11.92013857
C        9.63942811      11.47014890      16.12135845
C       10.84814025      10.60895583      16.40999109
O       12.00296363      11.40319077      16.14269617
H       12.78521372      10.85722796      16.32567024
H       10.83413933      10.27582537      17.45748951
H       10.83332165       9.71109228      15.77591987
H        8.71625576      10.91498955      16.30825033
H        9.65175953      12.35695400      16.75803498
H        9.65094283      11.79289075      15.07845987
