2
Lattice="20.0 0.0 0.0 0.0 20.0 0.0 0.0 0.0 20.0" Properties=species:S:1:pos:R:3 mu="-1.585256823764718 0.36284576927730683 0.011323108854682573" autoplex_st_units=e*Angstrom,Angstrom^3 provenance=synthetic_point_charge pbc="F F F"
Li       9.20737159      10.18142288      10.00566155
F       10.79262841       9.81857712       9.99433845
4
Lattice="20.0 0.0 0.0 0.0 20.0 0.0 0.0 0.0 20.0" Properties=species:S:1:pos:R:3 mu="0.133516083818499 -0.1498381121958836 0.2617792164704724" autoplex_st_units=e*Angstrom,Angstrom^3 provenance=synthetic_point_charge pbc="F F F"
Li      11.92287608       9.90676443      10.03551790
F       10.17779313      11.87117350      10.08712347
Li       8.07712392       9.94339745      10.15669239
F        9.68869078       8.12882650       9.84330761
6
Lattice="20.0 0.0 0.0 0.0 20.0 0.0 0.0 0.0 20.0" Properties=species:S:1:pos:R:3 mu="0.1796055014390694 -0.48061836827299054 -0.16700296197734055" autoplex_st_units=e*Angstrom,Angstrom^3 provenance=synthetic_point_charge pbc="F F F"
Li      12.56883188       9.98928955      10.09559242
F       11.16960357      12.32916170      10.08085339
Li       8.83320105      12.05261050       9.90440758
F        7.43116812       9.93111774      10.05387374
Li       8.70359949       7.67083830      10.04897981
F       11.32525521       7.93307728      10.08125564
4
Lattice="20.0 0.0 0.0 0.0 20.0 0.0 0.0 0.0 20.0" Properties=species:S:1:pos:R:3 mu="-0.07854980089082808 -0.16201911862206408 0.00282462415442275" autoplex_st_units=e*Angstrom,Angstrom^3 provenance=synthetic_point_charge pbc="F F F"
Li       8.96122013       8.89837378       9.91067927
F        8.96381501      11.02521099       9.86603225
F       11.03877987       9.13680813      10.13396775
Li      10.96282495      11.10162622      10.09214535
8
Lattice="20.0 0.0 0.0 0.0 20.0 0.0 0.0 0.0 20.0" Properties=species:S:1:pos:R:3 mu="-0.32754942914705687 -0.03054746939132258 -0.07655366162862265" autoplex_st_units=e*Angstrom,Angstrom^3 provenance=synthetic_point_charge pbc="F F F"
Li       9.06050919       8.98209925       9.06069310
F        9.11108220       8.99392574      10.70039443
F        9.12134999      11.01790075       9.24603570
Li       8.84770096      11.01228111      10.92761081
F       11.15229904       9.08266117       8.86418553
Li      11.03325059       9.23373018      10.89599416
Li      10.99830654      10.72892728       8.98557840
F       10.88258547      10.89309763      11.13581447
6
Lattice="20.0 0.0 0.0 0.0 20.0 0.0 0.0 0.0 20.0" Properties=species:S:1:pos:R:3 mu="-0.018653515994763836 -1.959941359911971 0.02497169084780282" autoplex_st_units=e*Angstrom,Angstrom^3 provenance=synthetic_point_charge pbc="F F F"
Li       8.12510310       8.86552197       9.94492271
F        7.97528668      11.07798311       9.89075532
F        9.91991040       9.04967991      10.13817949
Li       9.85949625      11.13447803       9.92467008
Li      11.91665753       9.14342370      10.04613423
F       12.02471332      10.97570204       9.86182051
2
Lattice="20.0 0.0 0.0 0.0 20.0 0.0 0.0 0.0 20.0" Properties=species:S:1:pos:R:3 mu="-2.045730070295109 -0.052575948195201505 -0.02972474485961918" autoplex_st_units=e*Angstrom,Angstrom^3 provenance=synthetic_point_charge pbc="F F F"
Li       8.97713496       9.97371203       9.98513763
F       11.02286504      10.02628797      10.01486237
4
Lattice="20.0 0.0 0.0 0.0 20.0 0.0 0.0 0.0 20.0" Properties=species:S:1:pos:R:3 mu="-0.16213052770749314 -0.3231800593311789 0.02627672605602349" autoplex_st_units=e*Angstrom,Angstrom^3 provenance=synthetic_point_charge pbc="F F F"
Li      11.93179341       9.84294462      10.00209684
F       10.14850166      11.89316651       9.94537037
Li       8.06820659       9.83387532      10.02417989
F       10.01362886       8.10683349      10.05462963
6
Lattice="20.0 0.0 0.0 0.0 20.0 0.0 0.0 0.0 20.0" Properties=species:S:1:pos:R:3 mu="-0.0702286791323603 -0.08660319487274659 0.38854856540469385" autoplex_st_units=e*Angstrom,Angstrom^3 provenance=synthetic_point_charge pbc="F F F"
Li      12.61072820       9.99512768       9.90960872
F       11.46763600      12.25597711       9.84671514
Li       8.73656034      12.41175269      10.15328486
F        7.38927180      10.04003039       9.87178807
Li       8.72835394       7.58824731       9.96737097
F       11.28896336       7.78572337       9.92321277
4
Lattice="20.0 0.0 0.0 0.0 20.0 0.0 0.0 0.0 20.0" Properties=species:S:1:pos:R:3 mu="-0.2202087043455485 0.0020128157351191334 -0.17524038963832922" autoplex_st_units=e*Angstrom,Angstrom^3 provenance=synthetic_point_charge pbc="F F F"
Li       8.90338589       8.89835650       9.90491096
F        9.06255224      11.06731347      10.06117002
F       11.09661411       8.93067371      10.09508904
Li      11.03557177      11.10164350      10.07610771
8
Lattice="20.0 0.0 0.0 0.0 20.0 0.0 0.0 0.0 20.0" Properties=species:S:1:pos:R:3 mu="0.4005639837772641 -0.25876829303374826 0.12364128413544506" autoplex_st_units=e*Angstrom,Angstrom^3 provenance=synthetic_point_charge pbc="F F F"
Li       8.91350010       8.98587619       8.83073097
F        8.99739523       9.00941661      10.80852011
F        8.84797970      10.84176921       9.05312592
Li       8.89312894      10.93350271      11.16926903
F       10.81644391       9.16720330       8.99528978
Li      11.15202030       8.94134972      10.85188604
Li      11.02237914      10.95754248       9.05581692
F       10.91864567      11.05865028      10.92712587
6
Lattice="20.0 0.0 0.0 0.0 20.0 0.0 0.0 0.0 20.0" Properties=species:S:1:pos:R:3 mu="-0.059154205701128504 -2.3159408161551696 -0.6618434131512316" autoplex_st_units=e*Angstrom,Angstrom^3 provenance=synthetic_point_charge pbc="F F F"
Li       8.03756657       8.95021873       9.82192729
F        8.05972088      11.07708540      10.07481010
F       10.03035219       8.90682297      10.12479762
Li       9.92659055      11.01754747       9.90244143
Li      11.96243343       8.85010068       9.99146829
F       11.89567168      11.14989932      10.17807271
2
Lattice="20.0 0.0 0.0 0.0 20.0 0.0 0.0 0.0 20.0" Properties=species:S:1:pos:R:3 mu="-1.59940470162889 -0.024702842698955507 -0.08970370360294133" autoplex_st_units=e*Angstrom,Angstrom^3 provenance=synthetic_point_charge pbc="F F F"
Li       9.20029765       9.98764858       9.95514815
F       10.79970235      10.01235142      10.04485185
4
Lattice="20.0 0.0 0.0 0.0 20.0 0.0 0.0 0.0 20.0" Properties=species:S:1:pos:R:3 mu="-0.25472316115085825 0.3003069852211695 0.061061021560774975" autoplex_st_units=e*Angstrom,Angstrom^3 provenance=synthetic_point_charge pbc="F F F"
Li      11.80792352      10.23850196       9.92063454
F       10.13844968      11.95428490      10.12257432
Li       8.19207648      10.06180503      10.13150040
F       10.11627348       8.04571510       9.86849960
6
Lattice="20.0 0.0 0.0 0.0 20.0 0.0 0.0 0.0 20.0" Properties=species:S:1:pos:R:3 mu="-0.26550465192822337 0.16418864079934625 0.11998589181456687" autoplex_st_units=e*Angstrom,Angstrom^3 provenance=synthetic_point_charge pbc="F F F"
Li      12.54355035       9.87241004      10.05751669
F       11.35065673      12.11412972       9.99882649
Li       8.76641732      12.21437248       9.99411471
F        7.45644965       9.96408581      10.09251278
Li       8.82639517       7.94124917      10.06718097
F       11.59476112       7.78562752       9.90748722
4
Lattice="20.0 0.0 0.0 0.0 20.0 0.0 0.0 0.0 20.0" Properties=species:S:1:pos:R:3 mu="0.27092532045694817 -0.08259072525213185 0.09296943597811946" autoplex_st_units=e*Angstrom,Angstrom^3 provenance=synthetic_point_charge pbc="F F F"
Li       9.01290020       8.99820799      10.08278936
F        8.93903532      11.00025076       9.96946945
F       10.86390424       9.08233997       9.93756112
Li      11.06096468      11.00179201       9.91721064
8
Lattice="20.0 0.0 0.0 0.0 20.0 0.0 0.0 0.0 20.0" Properties=species:S:1:pos:R:3 mu="-0.17763085742677198 0.7195044094587626 0.3285961999603586" autoplex_st_units=e*Angstrom,Angstrom^3 provenance=synthetic_point_charge pbc="F F F"
Li       9.03904217       9.21344884       8.92712469
F        9.10507328       8.86729084      10.85693724
F        8.90491974      10.93798234       8.87310768
Li       8.97936210      11.11347175      11.13218349
F       11.09508026       9.10289464       8.96108310
Li      11.02531636       9.16347316      10.87991348
Li      10.96699296      11.13270916       8.86781651
F       11.08327118      10.99543066      10.78731395
6
Lattice="20.0 0.0 0.0 0.0 20.0 0.0 0.0 0.0 20.0" Properties=species:S:1:pos:R:3 mu="-0.25832148019528045 -1.6256862841912127 0.003691763917290203" autoplex_st_units=e*Angstrom,Angstrom^3 provenance=synthetic_point_charge pbc="F F F"
Li       8.03689056       8.95330969       9.94872869
F        7.94233156      10.90875761      10.05012760
F        9.88489608       8.89221102       9.83130666
Li       9.81453333      11.10778898      10.03091659
Li      11.77515071       8.98214552      10.07417409
F       12.05766844      10.86796185      10.16869334
2
Lattice="20.0 0.0 0.0 0.0 20.0 0.0 0.0 0.0 20.0" Properties=species:S:1:pos:R:3 mu="-1.5490764382772984 0.11793995543845526 0.1807526719113426" autoplex_st_units=e*Angstrom,Angstrom^3 provenance=synthetic_point_charge pbc="F F F"
Li       9.22546178      10.05896998      10.09037634
F       10.77453822       9.94103002       9.90962366
4
Lattice="20.0 0.0 0.0 0.0 20.0 0.0 0.0 0.0 20.0" Properties=species:S:1:pos:R:3 mu="0.16765338910840732 0.08481040434878295 -0.31683612957111507" autoplex_st_units=e*Angstrom,Angstrom^3 provenance=synthetic_point_charge pbc="F F F"
Li      11.97209451      10.11513826       9.92893581
F       10.01299655      11.94347173      10.06066186
Li       8.02790549       9.96967214       9.90744496
F        9.81935006       8.05652827      10.09255504
6
Lattice="20.0 0.0 0.0 0.0 20.0 0.0 0.0 0.0 20.0" Properties=species:S:1:pos:R:3 mu="-0.6313305539512646 0.3198343247379851 0.0997488948153542" autoplex_st_units=e*Angstrom,Angstrom^3 provenance=synthetic_point_charge pbc="F F F"
Li      12.45429144      10.16495033       9.99082094
F       11.41911783      12.26477572      10.11345733
Li       8.56947162      12.16967830      10.15711749
F        7.54570856       9.90390277       9.95358112
Li       8.71629224       7.88910847       9.86173144
F       11.40655946       7.73522428       9.84288251
4
Lattice="20.0 0.0 0.0 0.0 20.0 0.0 0.0 0.0 20.0" Properties=species:S:1:pos:R:3 mu="-0.4759745400476447 -0.40944746013115463 0.034771416678722744" autoplex_st_units=e*Angstrom,Angstrom^3 provenance=synthetic_point_charge pbc="F F F"
Li       8.86682380       8.89979324      10.01585954
F        9.09210255      11.04246047      10.13553682
F       11.13317620       9.36698699       9.86446318
Li      10.88248042      11.10020676      10.01891187
8
Lattice="20.0 0.0 0.0 0.0 20.0 0.0 0.0 0.0 20.0" Properties=species:S:1:pos:R:3 mu="0.2965340326229331 0.2575053124363471 0.22704968267655978" autoplex_st_units=e*Angstrom,Angstrom^3 provenance=synthetic_point_charge pbc="F F F"
Li       8.93571224       8.81065151       8.94861887
F        8.90419611       8.91630918      10.96078108
F        9.03125158      10.82994652       9.09676050
Li       9.09786051      11.18934849      10.96589795
F       11.09580389       9.00211339       8.82286752
Li      11.01286362       8.81993382      11.17713248
Li      11.01621471      11.09451995       9.15515667
F       10.73486547      10.90857936      11.13934717
6
Lattice="20.0 0.0 0.0 0.0 20.0 0.0 0.0 0.0 20.0" Properties=species:S:1:pos:R:3 mu="-0.3443522212081005 -1.835783243972596 -0.10128952839218108" autoplex_st_units=e*Angstrom,Angstrom^3 provenance=synthetic_point_charge pbc="F F F"
Li       7.82892156       8.89261652      10.08699928
F        8.07835203      10.96073284      10.11586686
F       10.28174973       9.01813811      10.05071082
Li      10.04459185      11.10738348      10.10499003
Li      12.17107844       9.19974077       9.88413314
F       12.02884231      11.05665307      10.01083429
2
Lattice="20.0 0.0 0.0 0.0 20.0 0.0 0.0 0.0 20.0" Properties=species:S:1:pos:R:3 mu="-1.3781519468122827 0.16891593006358363 0.04496436403990067" autoplex_st_units=e*Angstrom,Angstrom^3 provenance=synthetic_point_charge pbc="F F F"
Li       9.31092403      10.08445797      10.02248218
F       10.68907597       9.91554203       9.97751782
4
Lattice="20.0 0.0 0.0 0.0 20.0 0.0 0.0 0.0 20.0" Properties=species:S:1:pos:R:3 mu="0.20057853137936021 0.5046611834141288 0.32282622020807317" autoplex_st_units=e*Angstrom,Angstrom^3 provenance=synthetic_point_charge pbc="F F F"
Li      11.89146879      10.22307921      10.14157097
F        9.82395828      11.74662185      10.01184504
Li       8.10853121      10.28158197      10.05152932
F        9.97546319       8.25337815       9.85842903
6
Lattice="20.0 0.0 0.0 0.0 20.0 0.0 0.0 0.0 20.0" Properties=species:S:1:pos:R:3 mu="0.2318221913530154 -0.162863270774821 0.001717849859073084" autoplex_st_units=e*Angstrom,Angstrom^3 provenance=synthetic_point_charge pbc="F F F"
Li      12.67400946      10.00316567      10.16729398
F       11.24236707      12.26487945       9.93657204
Li       8.65134102      12.14711769       9.83270602
F        7.32599054      10.03931353      10.06021534
Li       8.64686028       7.73512055       9.84393978
F       11.17203095       7.74407421       9.84543455
4
Lattice="20.0 0.0 0.0 0.0 20.0 0.0 0.0 0.0 20.0" Properties=species:S:1:pos:R:3 mu="0.14316009118710227 -0.01175594370942079 -0.08910446037407915" autoplex_st_units=e*Angstrom,Angstrom^3 provenance=synthetic_point_charge pbc="F F F"
Li       9.00236065       8.93189985       9.94407191
F        9.01027588      10.95519442       9.92782990
F       10.84656403       9.05656152      10.07217010
Li      10.99763935      11.06810015       9.96682363
8
Lattice="20.0 0.0 0.0 0.0 20.0 0.0 0.0 0.0 20.0" Properties=species:S:1:pos:R:3 mu="-0.37136483426995603 -0.7907967146499253 -0.1779484158321818" autoplex_st_units=e*Angstrom,Angstrom^3 provenance=synthetic_point_charge pbc="F F F"
Li       8.76382268       8.87224561       9.00905703
F        9.06142795       9.00227908      11.04622461
F        8.75713955      10.95754997       9.09611531
Li       8.79113020      10.98819956      10.93338484
F       10.69981938       9.05374086       8.95377539
Li      10.74828683       8.92043707      10.86828820
Li      11.08664279      10.56964533       9.05433254
F       11.24286045      11.12775439      10.94689572
6
Lattice="20.0 0.0 0.0 0.0 20.0 0.0 0.0 0.0 20.0" Properties=species:S:1:pos:R:3 mu="0.18965245955787324 -1.756489547519573 -0.02821495935638829" autoplex_st_units=e*Angstrom,Angstrom^3 provenance=synthetic_point_charge pbc="F F F"
Li       7.92559076       9.03473302       9.99599900
F        7.85991462      10.87312822      10.09898916
F        9.94276797       9.06344782       9.90101084
Li       9.94068071      11.14267634       9.97108468
Li      12.14008538       8.85732366       9.92968625
F       12.01402179      10.85464653       9.92498490
2
Lattice="20.0 0.0 0.0 0.0 20.0 0.0 0.0 0.0 20.0" Properties=species:S:1:pos:R:3 mu="-1.4036047210258946 0.1859989488281375 -0.07270215198269092" autoplex_st_units=e*Angstrom,Angstrom^3 provenance=synthetic_point_charge pbc="F F F"
Li       9.29819764      10.09299947       9.96364892
F       10.70180236       9.90700053      10.03635108
4
Lattice="20.0 0.0 0.0 0.0 20.0 0.0 0.0 0.0 20.0" Properties=species:S:1:pos:R:3 mu="-0.5459398976215599 0.021440717239496365 0.18763812141095393" autoplex_st_units=e*Angstrom,Angstrom^3 provenance=synthetic_point_charge pbc="F F F"
Li      11.81106774       9.94363643       9.92711566
F       10.21582028      12.00530137       9.94880152
Li       8.18893226      10.07780429      10.10466199
F       10.33011961       7.99469863       9.89533801
6
Lattice="20.0 0.0 0.0 0.0 20.0 0.0 0.0 0.0 20.0" Properties=species:S:1:pos:R:3 mu="0.30714591569065774 -0.19374685553257365 -0.1994405551052285" autoplex_st_units=e*Angstrom,Angstrom^3 provenance=synthetic_point_charge pbc="F F F"
Li      12.73648710       9.88094821       9.82104881
F       11.22217795      12.25373322       9.93821665
Li       8.62815548      12.30217117      10.01097621
F        7.26351290      10.03043529       9.91728171
Li       8.70398878       7.69782883      10.00298398
F       11.27579459       7.79052656      10.17895119
4
Lattice="20.0 0.0 0.0 0.0 20.0 0.0 0.0 0.0 20.0" Properties=species:S:1:pos:R:3 mu="-0.35357523221908593 0.07420982017035449 -0.06656189103077104" autoplex_st_units=e*Angstrom,Angstrom^3 provenance=synthetic_point_charge pbc="F F F"
Li       8.84920306       8.97995255      10.04635840
F        9.02932031      10.93595132      10.06973983
F       11.15079694       8.98983886       9.97344062
Li      10.97733896      11.02004745       9.93026017
8
Lattice="20.0 0.0 0.0 0.0 20.0 0.0 0.0 0.0 20.0" Properties=species:S:1:pos:R:3 mu="0.31051787456909175 -0.2713783151730418 0.15722238251536957" autoplex_st_units=e*Angstrom,Angstrom^3 provenance=synthetic_point_charge pbc="F F F"
Li       8.98396364       9.01339859       8.99422384
F        8.93625673       8.98845615      10.85959561
F        8.81008246      11.15518884       8.98992767
Li       8.77772983      10.98688344      11.08558569
F       10.80768149       9.03637237       9.09406896
Li      10.77248185       8.84481116      10.98945226
Li      11.22227017      11.09147499       8.91441431
F       10.89190694      11.02792914      10.88286147
6
Lattice="20.0 0.0 0.0 0.0 20.0 0.0 0.0 0.0 20.0" Properties=species:S:1:pos:R:3 mu="0.20935982821812882 -2.156417332039572 0.14737913699984695" autoplex_st_units=e*Angstrom,Angstrom^3 provenance=synthetic_point_charge pbc="F F F"
Li       7.91813223       8.85509342      10.13720567
F        7.90413501      10.88590473      10.06857475
F        9.93916153       9.07973422      10.12034341
Li       9.72667504      11.14490658      10.09837493
Li      12.09586499       8.90274151       9.96351104
F       11.68801588      11.09351990       9.86279433
2
Lattice="20.0 0.0 0.0 0.0 20.0 0.0 0.0 0.0 20.0" Properties=species:S:1:pos:R:3 mu="-1.5236856454631127 -0.05914054594429352 -0.014252728130676573" autoplex_st_units=e*Angstrom,Angstrom^3 provenance=synthetic_point_charge pbc="F F F"
Li       9.23815718       9.97042973       9.99287364
F       10.76184282      10.02957027      10.00712636
4
Lattice="20.0 0.0 0.0 0.0 20.0 0.0 0.0 0.0 20.0" Properties=species:S:1:pos:R:3 mu="0.15916175676077593 0.03468505218733853 0.16566818613029" autoplex_st_units=e*Angstrom,Angstrom^3 provenance=synthetic_point_charge pbc="F F F"
Li      11.71791098      10.12690976      10.04442972
F        9.82256816      11.87182021       9.94015641
Li       8.28208902       9.90777529      10.05984359
F       10.01827009       8.12817979       9.99844872
6
Lattice="20.0 0.0 0.0 0.0 20.0 0.0 0.0 0.0 20.0" Properties=species:S:1:pos:R:3 mu="0.007209877416668675 0.03577003204601237 -0.1354263338434034" autoplex_st_units=e*Angstrom,Angstrom^3 provenance=synthetic_point_charge pbc="F F F"
Li      12.56934958      10.06445352       9.95512295
F       11.44020248      12.29364627      10.06581107
Li       8.83005253      12.39810843      10.05926231
F        7.43065042       9.90214125      10.08693393
Li       8.71856841       7.60189157       9.91599948
F       11.23990774       7.83289596       9.91306607
4
Lattice="20.0 0.0 0.0 0.0 20.0 0.0 0.0 0.0 20.0" Properties=species:S:1:pos:R:3 mu="-0.48716900360167514 0.2810349759941584 0.014971720626480334" autoplex_st_units=e*Angstrom,Angstrom^3 provenance=synthetic_point_charge pbc="F F F"
Li       8.82836514       9.25266652      10.10719559
F        8.99954877      10.97275820      10.08577997
F       11.17163486       8.99943667       9.89924830
Li      10.85564949      11.00056333       9.89280441
8
Lattice="20.0 0.0 0.0 0.0 20.0 0.0 0.0 0.0 20.0" Properties=species:S:1:pos:R:3 mu="0.14466990441425942 0.07441641106736796 -0.33870286562521734" autoplex_st_units=e*Angstrom,Angstrom^3 provenance=synthetic_point_charge pbc="F F F"
Li       9.05042925       8.87983450       8.83275800
F        8.89827226       8.89005199      11.10609489
F        9.04586697      11.06560178       9.15323101
Li       9.25111793      11.12016550      10.98718245
F       10.96261948       9.02874535       8.90725579
Li      10.97741705       9.04960551      11.03135939
Li      10.87419213      10.94250651       9.14382097
F       11.10172774      10.93329650      11.16724200
6
Lattice="20.0 0.0 0.0 0.0 20.0 0.0 0.0 0.0 20.0" Properties=species:S:1:pos:R:3 mu="0.11991387964583655 -2.351487326305419 0.26890586911267356" autoplex_st_units=e*Angstrom,Angstrom^3 provenance=synthetic_point_charge pbc="F F F"
Li       7.92639904       9.00414296      10.14596560
F        7.91489288      11.19080537       9.95494483
F        9.95581218       8.92446980       9.85403440
Li       9.89861400      10.87743337       9.89734325
Li      12.08510712       8.80919463       9.90105699
F       11.91950121      10.92698311       9.86648075
2
Lattice="20.0 0.0 0.0 0.0 20.0 0.0 0.0 0.0 20.0" Properties=species:S:1:pos:R:3 mu="-1.4284479783032236 0.04154272460859154 -0.13049395063024427" autoplex_st_units=e*Angstrom,Angstrom^3 provenance=synthetic_point_charge pbc="F F F"
Li       9.28577601      10.02077136       9.93475302
F       10.71422399       9.97922864      10.06524698
4
Lattice="20.0 0.0 0.0 0.0 20.0 0.0 0.0 0.0 20.0" Properties=species:S:1:pos:R:3 mu="-0.5203471157219752 0.3300468432025987 0.33758061254212457" autoplex_st_units=e*Angstrom,Angstrom^3 provenance=synthetic_point_charge pbc="F F F"
Li      12.02278630      10.11532591      10.17831331
F       10.28868761      11.91265411       9.96980471
Li       7.97721370      10.21472093       9.95075871
F       10.23165950       8.08734589       9.82168669
6
Lattice="20.0 0.0 0.0 0.0 20.0 0.0 0.0 0.0 20.0" Properties=species:S:1:pos:R:3 mu="0.025438414032681322 0.016674852760240277 -0.2808896984422624" autoplex_st_units=e*Angstrom,Angstrom^3 provenance=synthetic_point_charge pbc="F F F"
Li      12.61835685       9.99195917       9.89472292
F       11.68247357      12.05234652      10.04466407
Li       8.90569153      12.34542615       9.94643874
F        7.38164315      10.00087668       9.87862988
Li       8.95122709       7.65457385       9.92261271
F       11.38572035       7.92206111      10.12137012
4
Lattice="20.0 0.0 0.0 0.0 20.0 0.0 0.0 0.0 20.0" Properties=species:S:1:pos:R:3 mu="0.5252865353045273 0.364121095741039 0.17116313618521417" autoplex_st_units=e*Angstrom,Angstrom^3 provenance=synthetic_point_charge pbc="F F F"
Li       9.17751702       9.04752704      10.07478604
F        8.91282516      10.99613272      10.04456168
F       10.82658017       8.84363661       9.92521396
Li      11.08717484      11.15636339      10.06615274
8
Lattice="20.0 0.0 0.0 0.0 20.0 0.0 0.0 0.0 20.0" Properties=species:S:1:pos:R:3 mu="0.15828085329122388 -0.18737110812214297 -0.06680336430543399" autoplex_st_units=e*Angstrom,Angstrom^3 provenance=synthetic_point_charge pbc="F F F"
Li       9.15586789       8.97900204       9.00780666
F        9.06427486       8.91601529      11.01075404
F        8.94688276      11.05310014       9.05414691
Li       9.01617807      10.91489541      10.93544546
F       11.01476287       9.26950742       9.05648827
Li      11.03160291       8.98378919      11.08599657
Li      11.03366972      11.08398471       8.91400343
F       11.05311724      10.91041961      10.88866627
6
Lattice="20.0 0.0 0.0 0.0 20.0 0.0 0.0 0.0 20.0" Properties=species:S:1:pos:R:3 mu="-0.45206798308730445 -2.287326367148154 0.19907996788609772" autoplex_st_units=e*Angstrom,Angstrom^3 provenance=synthetic_point_charge pbc="F F F"
Li       7.85700176       9.07922502      10.01688907
F        7.74808748      10.98373392      10.16228268
F       10.10587332       9.06407238       9.83771732
Li       9.88360939      10.82599943       9.92396266
Li      11.91319419       8.92762774      10.15303299
F       12.25191252      11.07237226       9.89480476
2
Lattice="20.0 0.0 0.0 0.0 20.0 0.0 0.0 0.0 20.0" Properties=species:S:1:pos:R:3 mu="-1.4897643582658446 0.33138503115194595 -0.1130718776182249" autoplex_st_units=e*Angstrom,Angstrom^3 provenance=synthetic_point_charge pbc="F F F"
Li       9.25511782      10.16569252       9.94346406
F       10.74488218       9.83430748      10.05653594
4
Lattice="20.0 0.0 0.0 0.0 20.0 0.0 0.0 0.0 20.0" Properties=species:S:1:pos:R:3 mu="0.19006017605875947 0.2609632474558392 0.01809185998147811" autoplex_st_units=e*Angstrom,Angstrom^3 provenance=synthetic_point_charge pbc="F F F"
Li      11.87038778      10.02996967      10.08457215
F        9.87984754      11.95315044       9.89622429
Li       8.12961222      10.23099357       9.93351971
F        9.93009228       8.04684956      10.10377571
6
Lattice="20.0 0.0 0.0 0.0 20.0 0.0 0.0 0.0 20.0" Properties=species:S:1:pos:R:3 mu="-0.08533781463513979 -0.38345893262529085 0.0862711051977314" autoplex_st_units=e*Angstrom,Angstrom^3 provenance=synthetic_point_charge pbc="F F F"
Li      12.57974744       9.88234104      10.04007575
F       11.36457567      12.31989550       9.98572204
Li       8.90878348      12.07812988       9.93712231
F        7.42025256       9.91466434      10.09156773
Li       8.61904839       7.68010450      10.09318141
F       11.40808889       7.78947451       9.90681859
4
Lattice="20.0 0.0 0.0 0.0 20.0 0.0 0.0 0.0 20.0" Properties=species:S:1:pos:R:3 mu="0.08447905980307802 0.06076311676662094 0.0719189989701885" autoplex_st_units=e*Angstrom,Angstrom^3 provenance=synthetic_point_charge pbc="F F F"
Li       8.99039750       8.96221464      10.02363846
F        8.96740154      10.91025027       9.88764600
F       10.97111536       9.02898662      10.11235400
Li      11.03259846      11.03778536      10.04828054
8
Lattice="20.0 0.0 0.0 0.0 20.0 0.0 0.0 0.0 20.0" Properties=species:S:1:pos:R:3 mu="0.19677451541822144 0.08287184633337219 -0.23949740385328866" autoplex_st_units=e*Angstrom,Angstrom^3 provenance=synthetic_point_charge pbc="F F F"
Li       9.04177673       9.02969199       8.93990573
F        8.94120600       8.93835052      10.95062689
F        9.02535226      10.88027972       9.33920461
Li       9.07796929      10.95107466      10.92318470
F       11.03576787       8.86967234       8.89406777
Li      11.04588152       8.95614326      11.10593223
Li      11.05879400      10.96459217       8.99929509
F       11.02532090      11.13032766      11.02391589
6
Lattice="20.0 0.0 0.0 0.0 20.0 0.0 0.0 0.0 20.0" Properties=species:S:1:pos:R:3 mu="0.0749459342080101 -2.00163863628652 0.06354396737783219" autoplex_st_units=e*Angstrom,Angstrom^3 provenance=synthetic_point_charge pbc="F F F"
Li       8.02030103       9.08005098      10.02039879
F        8.06330086      11.07345973      10.02311796
F        9.97735326       8.86293340       9.92698914
Li      10.02303262      11.03677676       9.97607675
Li      11.97969897       8.95499335      10.07301086
F       11.90743256      11.13706660      10.05583533
2
Lattice="20.0 0.0 0.0 0.0 20.0 0.0 0.0 0.0 20.0" Properties=species:S:1:pos:R:3 mu="-1.2561381094490205 0.11085758837264237 0.12975552105435462" autoplex_st_units=e*Angstrom,Angstrom^3 provenance=synthetic_point_charge pbc="F F F"
Li       9.37193095      10.05542879      10.06487776
F       10.62806905       9.94457121       9.93512224
4
Lattice="20.0 0.0 0.0 0.0 20.0 0.0 0.0 0.0 20.0" Properties=species:S:1:pos:R:3 mu="0.23849950118056285 0.23821261285785056 0.4054323139628835" autoplex_st_units=e*Angstrom,Angstrom^3 provenance=synthetic_point_charge pbc="F F F"
Li      11.92663880      10.14647162       9.92753694
F        9.90898274      11.81571927       9.81866913
Li       8.07336120      10.09174099      10.18133087
F        9.85251776       8.18428073       9.88476637
6
Lattice="20.0 0.0 0.0 0.0 20.0 0.0 0.0 0.0 20.0" Properties=species:S:1:pos:R:3 mu="-0.32714306306294816 0.2008716467189613 0.5081335592876126" autoplex_st_units=e*Angstrom,Angstrom^3 provenance=synthetic_point_charge pbc="F F F"
Li      12.58258679      10.05135822      10.03259572
F       11.07272619      12.00637569      10.08019929
Li       8.49302147      12.24033723      10.22303140
F        7.41741321      10.16383652      10.01520860
Li       8.36321846       7.83905117      10.12488291
F       11.27583039       7.75966277       9.77696860
4
Lattice="20.0 0.0 0.0 0.0 20.0 0.0 0.0 0.0 20.0" Properties=species:S:1:pos:R:3 mu="0.09626932641048391 -0.2834181014036652 -0.3783650486587682" autoplex_st_units=e*Angstrom,Angstrom^3 provenance=synthetic_point_charge pbc="F F F"
Li       8.91956302       8.85358608       9.87982982
F        9.05463209      11.14641392      10.01798538
F       10.84909859       9.11055990      10.12017018
Li      11.08043698      11.11996965       9.87996069
8
Lattice="20.0 0.0 0.0 0.0 20.0 0.0 0.0 0.0 20.0" Properties=species:S:1:pos:R:3 mu="-0.3058069359565412 0.4168551408824275 0.43033663725262983" autoplex_st_units=e*Angstrom,Angstrom^3 provenance=synthetic_point_charge pbc="F F F"
Li       8.93603366       9.18289632       8.99483868
F        8.93677509       9.03840235      11.07629106
F        9.36239013      10.87166754       8.85035327
Li       9.07621201      10.94376156      11.09041050
F       11.04582538       8.96093932       9.00958247
Li      11.06396634       8.89595223      11.14964673
Li      10.98666619      11.10404777       9.16450543
F       11.02369454      10.83879352      11.03283790
6
Lattice="20.0 0.0 0.0 0.0 20.0 0.0 0.0 0.0 20.0" Properties=species:S:1:pos:R:3 mu="-0.007402386296904595 -2.256629343865532 0.27542303705580373" autoplex_st_units=e*Angstrom,Angstrom^3 provenance=synthetic_point_charge pbc="F F F"
Li       7.95478648       8.88230043       9.99531410
F        7.88223898      11.07641324      10.11183672
F       10.10170059       9.01855662       9.88071800
Li       9.95648293      10.95838862      10.08810199
Li      12.11776102       9.11535104      10.11928200
F       12.05249325      11.11769957       9.93472034
2
Lattice="20.0 0.0 0.0 0.0 20.0 0.0 0.0 0.0 20.0" Properties=species:S:1:pos:R:3 mu="-1.7857572272676219 -0.1306912630723005 0.0005329343395796826" autoplex_st_units=e*Angstrom,Angstrom^3 provenance=synthetic_point_charge pbc="F F F"
Li       9.10712139       9.93465437      10.00026647
F       10.89287861      10.06534563       9.99973353
4
Lattice="20.0 0.0 0.0 0.0 20.0 0.0 0.0 0.0 20.0" Properties=species:S:1:pos:R:3 mu="-0.1613367661148324 0.004995072625737507 -0.017105187065460825" autoplex_st_units=e*Angstrom,Angstrom^3 provenance=synthetic_point_charge pbc="F F F"
Li      12.09912988       9.84047631       9.95408874
F       10.07087643      11.83401597      10.05288527
Li       7.90087012      10.16451876      10.02880607
F       10.09046033       8.16598403       9.94711473
6
Lattice="20.0 0.0 0.0 0.0 20.0 0.0 0.0 0.0 20.0" Properties=species:S:1:pos:R:3 mu="0.09155092141321042 0.7571805461278469 -0.4149353997327392" autoplex_st_units=e*Angstrom,Angstrom^3 provenance=synthetic_point_charge pbc="F F F"
Li      12.56481045      10.21183144       9.94265784
F       11.24793157      12.25941403      10.16066636
Li       8.76988523      12.37067424       9.83933364
F        7.43518955       9.70912627      10.07033844
Li       8.82423213       7.77254092      10.05806349
F       11.38425576       7.62932576      10.02398556
4
Lattice="20.0 0.0 0.0 0.0 20.0 0.0 0.0 0.0 20.0" Properties=species:S:1:pos:R:3 mu="0.5437728472772623 -0.1626800759837561 0.026324552294953563" autoplex_st_units=e*Angstrom,Angstrom^3 provenance=synthetic_point_charge pbc="F F F"
Li       9.14093142       8.91242428       9.95991468
F        8.77506215      11.14090190      10.10147859
F       11.04703426       8.85909810       9.89852141
Li      11.22493785      10.92489565      10.06640987
8
Lattice="20.0 0.0 0.0 0.0 20.0 0.0 0.0 0.0 20.0" Properties=species:S:1:pos:R:3 mu="-0.6539100235195523 0.897503454567385 -0.10522889694843762" autoplex_st_units=e*Angstrom,Angstrom^3 provenance=synthetic_point_charge pbc="F F F"
Li       8.95865863       9.33104486       8.94385869
F        9.24674181       9.00977499      10.98743072
F        8.94033423      11.00674159       9.13635543
Li       8.90079030      11.08566229      11.05614131
F       11.09920970       8.91433771       9.05522559
Li      10.73516567       9.35124040      10.90585917
Li      10.99084979      11.04336518       9.02882987
F       10.95308867      10.98295498      10.86090620
6
Lattice="20.0 0.0 0.0 0.0 20.0 0.0 0.0 0.0 20.0" Properties=species:S:1:pos:R:3 mu="0.0012408072128531344 -1.832656168620133 -0.3518146882008377" autoplex_st_units=e*Angstrom,Angstrom^3 provenance=synthetic_point_charge pbc="F F F"
Li       7.94795618       9.17049255      10.17364969
F        8.08636169      10.83454610      10.07346648
F        9.98582368       9.07608166      10.02001741
Li       9.85460330      10.98346752       9.82635031
Li      12.05204382       8.96200576       9.85525915
F       11.78117712      11.03799424      10.11358995
2
Lattice="20.0 0.0 0.0 0.0 20.0 0.0 0.0 0.0 20.0" Properties=species:S:1:pos:R:3 mu="-1.482210786984254 0.18393307266466508 -0.09790278189245072" autoplex_st_units=e*Angstrom,Angstrom^3 provenance=synthetic_point_charge pbc="F F F"
Li       9.25889461      10.09196654       9.95104861
F       10.74110539       9.90803346      10.04895139
4
Lattice="20.0 0.0 0.0 0.0 20.0 0.0 0.0 0.0 20.0" Properties=species:S:1:pos:R:3 mu="0.532717642340879 0.3309014209904877 -0.16853025558189927" autoplex_st_units=e*Angstrom,Angstrom^3 provenance=synthetic_point_charge pbc="F F F"
Li      11.98889286      10.28492701       9.84431462
F        9.77793924      11.96552926       9.96320036
Li       8.01110714      10.04597441      10.10604087
F        9.68934312       8.03447074      10.15568538
6
Lattice="20.0 0.0 0.0 0.0 20.0 0.0 0.0 0.0 20.0" Properties=species:S:1:pos:R:3 mu="-0.5696452671581262 0.0400959604618194 0.18708281029942775" autoplex_st_units=e*Angstrom,Angstrom^3 provenance=synthetic_point_charge pbc="F F F"
Li      12.52821315       9.97063146      10.14532950
F       11.16975860      12.28362135       9.95474141
Li       8.45105691      12.30802843       9.85951940
F        7.47178685       9.92816204       9.79641035
Li       8.39483080       7.69197157      10.13697532
F       11.30220068       7.71875211      10.20358965
4
Lattice="20.0 0.0 0.0 0.0 20.0 0.0 0.0 0.0 20.0" Properties=species:S:1:pos:R:3 mu="-0.052047126710153435 0.11165649256745702 0.07629195161400482" autoplex_st_units=e*Angstrom,Angstrom^3 provenance=synthetic_point_charge pbc="F F F"
Li       9.14119465       8.92596825      10.00971350
F        8.84014109      10.67523115      10.13229055
F       11.15985891       9.21311236       9.86770945
Li      10.80675822      11.07403175      10.06657845
8
Lattice="20.0 0.0 0.0 0.0 20.0 0.0 0.0 0.0 20.0" Properties=species:S:1:pos:R:3 mu="0.113775136516713 -0.18022656829564987 -0.0688942434310853" autoplex_st_units=e*Angstrom,Angstrom^3 provenance=synthetic_point_charge pbc="F F F"
Li       8.91492186       9.04549930       8.95990477
F        8.87283539       8.84637799      11.11013452
F        9.06424553      10.93280937       8.88872923
Li       9.05251094      10.78631430      10.76315903
F       10.85193103       8.91939948       8.92554114
Li      10.85843725       8.93629777      11.11127077
Li      11.12716461      10.90387091       8.91079490
F       11.05024757      11.15362201      10.88961882
6
Lattice="20.0 0.0 0.0 0.0 20.0 0.0 0.0 0.0 20.0" Properties=species:S:1:pos:R:3 mu="-0.19767741825610763 -1.8096320718928336 -0.16739877852913843" autoplex_st_units=e*Angstrom,Angstrom^3 provenance=synthetic_point_charge pbc="F F F"
Li       8.10450923       8.98566215      10.04521049
F        8.21295792      11.01814235      10.03764816
F        9.99868633       8.98185765      10.19847547
Li       9.83526441      10.93026541      10.16275343
Li      11.89549077       9.14512806       9.80152453
F       11.82129757      10.87068770       9.94076359
2
Lattice="20.0 0.0 0.0 0.0 20.0 0.0 0.0 0.0 20.0" Properties=species:S:1:pos:R:3 mu="-1.6787621218031195 -0.00982030598770045 -0.06282934733552459" autoplex_st_units=e*Angstrom,Angstrom^3 provenance=synthetic_point_charge pbc="F F F"
Li       9.16061894       9.99508985       9.96858533
F       10.83938106      10.00491015      10.03141467
4
Lattice="20.0 0.0 0.0 0.0 20.0 0.0 0.0 0.0 20.0" Properties=species:S:1:pos:R:3 mu="0.22168534006421758 0.25487163047365335 -0.20550777815751786" autoplex_st_units=e*Angstrom,Angstrom^3 provenance=synthetic_point_charge pbc="F F F"
Li      12.02542521      10.17208712       9.88821199
F        9.79192640      11.90544367       9.92254826
Li       7.97457479      10.08278451       9.94061651
F        9.98638825       8.09455633      10.11178801
6
Lattice="20.0 0.0 0.0 0.0 20.0 0.0 0.0 0.0 20.0" Properties=species:S:1:pos:R:3 mu="-0.30826320548512776 0.378490342733393 -0.31859067584125533" autoplex_st_units=e*Angstrom,Angstrom^3 provenance=synthetic_point_charge pbc="F F F"
Li      12.62728051      10.24017850       9.87901313
F       11.23970944      12.40149735      10.05472714
Li       8.48814708      12.23551201       9.87368676
F        7.37271949      10.05112255       9.81895909
Li       8.40312649       7.95392237       9.98343657
F       11.21438836       7.59850265      10.18104091
4
Lattice="20.0 0.0 0.0 0.0 20.0 0.0 0.0 0.0 20.0" Properties=species:S:1:pos:R:3 mu="-0.052692310359699235 0.0462311659538539 -0.12272912692900917" autoplex_st_units=e*Angstrom,Angstrom^3 provenance=synthetic_point_charge pbc="F F F"
Li       8.93255772       9.04368983       9.82473772
F        9.06140181      10.97580006      10.18698249
F       10.99129050       9.01082930       9.81301751
Li      11.06744228      10.98917070      10.05253315
8
Lattice="20.0 0.0 0.0 0.0 20.0 0.0 0.0 0.0 20.0" Properties=species:S:1:pos:R:3 mu="0.4666976719028284 -0.5138788212487473 -0.14954623793941302" autoplex_st_units=e*Angstrom,Angstrom^3 provenance=synthetic_point_charge pbc="F F F"
Li       9.08164499       9.15900370       8.97799750
F        8.95323347       9.02307133      11.06181275
F        8.98202600      11.22387070       9.08526180
Li       8.87711789      11.04317570      10.94186828
F       10.99879401       9.16982156       8.93818725
Li      10.99817113       8.77612930      11.06057535
Li      11.12288211      10.93048975       8.96770117
F       10.67906498      11.00591369      11.01242673
6
Lattice="20.0 0.0 0.0 0.0 20.0 0.0 0.0 0.0 20.0" Properties=species:S:1:pos:R:3 mu="-0.11025636239860148 -1.5474095911787664 -0.10363469777505685" autoplex_st_units=e*Angstrom,Angstrom^3 provenance=synthetic_point_charge pbc="F F F"
Li       7.95330543       8.99372396       9.86796641
F        7.95074757      10.89477629      10.13203359
F        9.96883407       8.79001449       9.99637049
Li       9.95289043      11.20998551      10.03688325
Li      11.95238185       8.84695051      10.08863515
F       12.04925243      10.91327879       9.96871543
2
Lattice="20.0 0.0 0.0 0.0 20.0 0.0 0.0 0.0 20.0" Properties=species:S:1:pos:R:3 mu="-1.7652370473399355 -0.2178700619050975 -0.24172288556743204" autoplex_st_units=e*Angstrom,Angstrom^3 provenance=synthetic_point_charge pbc="F F F"
Li       9.11738148       9.89106497       9.87913856
F       10.88261852      10.10893503      10.12086144
4
Lattice="20.0 0.0 0.0 0.0 20.0 0.0 0.0 0.0 20.0" Properties=species:S:1:pos:R:3 mu="0.48780167580133416 0.3174909094979128 0.2756671744499055" autoplex_st_units=e*Angstrom,Angstrom^3 provenance=synthetic_point_charge pbc="F F F"
Li      11.75941108      10.06869023      10.11887159
F        9.85875528      11.82834108       9.91457969
Li       8.24058892      10.24880068       9.95250369
F        9.65344304       8.17165892       9.88112841
6
Lattice="20.0 0.0 0.0 0.0 20.0 0.0 0.0 0.0 20.0" Properties=species:S:1:pos:R:3 mu="0.4955942882294515 -0.34262648490841663 0.058752068471243035" autoplex_st_units=e*Angstrom,Angstrom^3 provenance=synthetic_point_charge pbc="F F F"
Li      12.59918291       9.84279080       9.80862197
F       10.94646532      12.17971751       9.85525663
Li       8.60821847      12.18840080       9.94856373
F        7.40081709      10.23531800       9.92622668
Li       8.79963820       7.85281664      10.19137803
F       11.16416287       7.81159920      10.10832836
4
Lattice="20.0 0.0 0.0 0.0 20.0 0.0 0.0 0.0 20.0" Properties=species:S:1:pos:R:3 mu="0.18954249532516343 -0.03881726260006246 0.315392067615095" autoplex_st_units=e*Angstrom,Angstrom^3 provenance=synthetic_point_charge pbc="F F F"
Li       9.25606663       9.09392961      10.10709376
F        8.80053748      11.00239162       9.89290624
F       11.19946252       8.99760838       9.90804619
Li      10.93347586      10.86725313      10.00925074
8
Lattice="20.0 0.0 0.0 0.0 20.0 0.0 0.0 0.0 20.0" Properties=species:S:1:pos:R:3 mu="0.33995645292944765 0.27610436459968035 0.47018028059607175" autoplex_st_units=e*Angstrom,Angstrom^3 provenance=synthetic_point_charge pbc="F F F"
Li       9.00393034       9.13741285       9.12718583
F        8.82749752       8.94225026      10.92904798
F        8.93927225      10.84481151       8.82665125
Li       9.01977445      10.77786752      11.01517837
F       11.10892887       9.08940497       9.01913981
Li      11.04808790       9.18441038      11.17334875
Li      11.17250248      11.05774974       9.00067356
F       11.02864008      11.00486939      11.07136716
6
Lattice="20.0 0.0 0.0 0.0 20.0 0.0 0.0 0.0 20.0" Properties=species:S:1:pos:R:3 mu="-0.01802599798296356 -2.372858321461246 0.21708707618251388" autoplex_st_units=e*Angstrom,Angstrom^3 provenance=synthetic_point_charge pbc="F F F"
Li       8.07832289       8.89236671      10.05480355
F        8.09709195      11.10763329       9.90729039
F        9.89860241       9.21140314       9.99356785
Li      10.05837911      10.90283473      10.14013956
Li      11.76264347       9.18381317       9.85986044
F       11.92167711      11.03283651       9.93685824
2
Lattice="20.0 0.0 0.0 0.0 20.0 0.0 0.0 0.0 20.0" Properties=species:S:1:pos:R:3 mu="-1.4369518676389816 -0.05233955374121635 -0.20873515370315232" autoplex_st_units=e*Angstrom,Angstrom^3 provenance=synthetic_point_charge pbc="F F F"
Li       9.28152407       9.97383022       9.89563242
F       10.71847593      10.02616978      10.10436758
4
Lattice="20.0 0.0 0.0 0.0 20.0 0.0 0.0 0.0 20.0" Properties=species:S:1:pos:R:3 mu="-0.11425771087890269 0.10403649219741773 -0.04602420469717572" autoplex_st_units=e*Angstrom,Angstrom^3 provenance=synthetic_point_charge pbc="F F F"
Li      11.88488274      10.03045409      10.03049687
F       10.18743045      11.95760142      10.02740186
Li       8.11511726      10.07358240       9.96950313
F        9.92682726       8.04239858      10.01862235
6
Lattice="20.0 0.0 0.0 0.0 20.0 0.0 0.0 0.0 20.0" Properties=species:S:1:pos:R:3 mu="-0.005976656869425057 -0.03901965011750974 0.4046596541309224" autoplex_st_units=e*Angstrom,Angstrom^3 provenance=synthetic_point_charge pbc="F F F"
Li      12.60919071      10.03111507      10.24331868
F       11.33535041      12.30163058      10.02066195
Li       8.97079788      12.25583188      10.00625328
F        7.39080929       9.97661972       9.75668132
Li       8.68494325       7.69836942       9.92309232
F       11.54474879       7.74608571       9.99066137
4
Lattice="20.0 0.0 0.0 0.0 20.0 0.0 0.0 0.0 20.0" Properties=species:S:1:pos:R:3 mu="-0.10417712500219345 -0.03327271512644714 -0.14836863121633925" autoplex_st_units=e*Angstrom,Angstrom^3 provenance=synthetic_point_charge pbc="F F F"
Li       8.99479797       9.03235000       9.94691278
F        9.12881882      11.09364578      10.04473566
F       10.97535830       8.90635422      10.05308722
Li      11.00520203      10.93437729      10.00254147
8
Lattice="20.0 0.0 0.0 0.0 20.0 0.0 0.0 0.0 20.0" Properties=species:S:1:pos:R:3 mu="-0.20967076008736285 0.29977479810674623 0.5618612688334323" autoplex_st_units=e*Angstrom,Angstrom^3 provenance=synthetic_point_charge pbc="F F F"
Li       8.86228613       9.19839290       8.96057561
F        8.92288012       8.78111424      11.00163375
F        8.91132644      10.99449692       8.92536015
Li       8.92300381      10.89770734      11.17261217
F       11.13771387       8.99715364       8.82738783
Li      10.99960147       8.83312546      10.97212054
Li      10.88749702      11.21888576       9.05397845
F       10.91013878      11.07557186      10.84304377
6
Lattice="20.0 0.0 0.0 0.0 20.0 0.0 0.0 0.0 20.0" Properties=species:S:1:pos:R:3 mu="0.39807975816375407 -1.7218867604977053 0.3140318625192542" autoplex_st_units=e*Angstrom,Angstrom^3 provenance=synthetic_point_charge pbc="F F F"
Li       8.07869866       8.90334849       9.97425001
F        7.87640282      10.95112412       9.79949345
F        9.93890292       8.98612771      10.01585075
Li      10.06869481      11.09665151      10.20050655
Li      12.12359718       9.06812277       9.95497452
F       12.05760515      10.85275770      10.00035502
2
Lattice="20.0 0.0 0.0 0.0 20.0 0.0 0.0 0.0 20.0" Properties=species:S:1:pos:R:3 mu="-1.7322734208836739 0.04859037675303135 0.0772322244479895" autoplex_st_units=e*Angstrom,Angstrom^3 provenance=synthetic_point_charge pbc="F F F"
Li       9.13386329      10.02429519      10.03861611
F       10.86613671       9.97570481       9.96138389
4
Lattice="20.0 0.0 0.0 0.0 20.0 0.0 0.0 0.0 20.0" Properties=species:S:1:pos:R:3 mu="-0.3330896377710655 0.3267705655607127 -0.32092080388291144" autoplex_st_units=e*Angstrom,Angstrom^3 provenance=synthetic_point_charge pbc="F F F"
Li      11.90093832      10.20525542       9.92760915
F       10.05035191      11.80454942      10.08332817
Li       8.09906168      10.12151514       9.91667183
F       10.28273773       8.19545058      10.08187361
6
Lattice="20.0 0.0 0.0 0.0 20.0 0.0 0.0 0.0 20.0" Properties=species:S:1:pos:R:3 mu="-0.17560842147905653 0.22521654302503435 0.38602982204055714" autoplex_st_units=e*Angstrom,Angstrom^3 provenance=synthetic_point_charge pbc="F F F"
Li      12.51222949      10.21762488      10.13140621
F       11.37892834      12.21924409       9.96502441
Li       8.68974350      12.30552115      10.01510796
F        7.48777051       9.91658335       9.90406853
Li       8.73315293       7.69447885       9.97720238
F       11.24403550       7.85658090       9.86859379
4
Lattice="20.0 0.0 0.0 0.0 20.0 0.0 0.0 0.0 20.0" Properties=species:S:1:pos:R:3 mu="0.07309095536923316 -0.20066722002224502 0.1345470274548859" autoplex_st_units=e*Angstrom,Angstrom^3 provenance=synthetic_point_charge pbc="F F F"
Li       9.01040192       8.87798601      10.06112447
F        9.04870213      11.12201399       9.93887553
F       10.87820691       9.00511935      10.02173463
Li      10.98959808      11.04848010      10.03403271
8
Lattice="20.0 0.0 0.0 0.0 20.0 0.0 0.0 0.0 20.0" Properties=species:S:1:pos:R:3 mu="-0.4641297592295732 -0.290023261511724 -0.07268554727869159" autoplex_st_units=e*Angstrom,Angstrom^3 provenance=synthetic_point_charge pbc="F F F"
Li       8.84779119       8.98542282       8.90524964
F        9.00560133       9.19780599      11.07368251
F        8.93492485      11.01810231       9.03336500
Li       8.85319693      11.07339394      11.09475036
F       11.01495684       8.94130049       9.07270534
Li      11.15220881       8.92660606      11.06190840
Li      10.72073002      10.81832398       9.12406201
F       11.08257368      10.93656128      11.07890311
6
Lattice="20.0 0.0 0.0 0.0 20.0 0.0 0.0 0.0 20.0" Properties=species:S:1:pos:R:3 mu="-0.021865895312535244 -1.9855428935530988 -0.08402715958619034" autoplex_st_units=e*Angstrom,Angstrom^3 provenance=synthetic_point_charge pbc="F F F"
Li       7.91233597       9.09507545       9.94883957
F        8.00241738      10.94141255      10.11658173
F       10.06935522       8.93136567       9.88341827
Li      10.13225314      11.11468420       9.96008424
Li      12.08766403       8.83873784      10.01123408
F       12.08234643      11.16126216      10.00418504
2
Lattice="20.0 0.0 0.0 0.0 20.0 0.0 0.0 0.0 20.0" Properties=species:S:1:pos:R:3 mu="-1.5232609726024258 0.008412571245701272 0.3427551282670098" autoplex_st_units=e*Angstrom,Angstrom^3 provenance=synthetic_point_charge pbc="F F F"
Li       9.23836951      10.00420629      10.17137756
F       10.76163049       9.99579371       9.82862244
4
Lattice="20.0 0.0 0.0 0.0 20.0 0.0 0.0 0.0 20.0" Properties=species:S:1:pos:R:3 mu="-0.3198327931596836 -0.18546690861709791 0.037781544798423994" autoplex_st_units=e*Angstrom,Angstrom^3 provenance=synthetic_point_charge pbc="F F F"
Li      11.86335731       9.86814948      10.01670965
F       10.17431675      11.87734809      10.09353545
Li       8.13664269       9.94638361      10.02107189
F       10.14551604       8.12265191       9.90646455
6
Lattice="20.0 0.0 0.0 0.0 20.0 0.0 0.0 0.0 20.0" Properties=species:S:1:pos:R:3 mu="0.708916249214675 -0.4162825783711481 -0.0026238401285514357" autoplex_st_units=e*Angstrom,Angstrom^3 provenance=synthetic_point_charge pbc="F F F"
Li      12.71706929       9.83090406       9.90864001
F       11.06555983      12.35263174       9.98284619
Li       8.67891278      12.14843772      10.05724281
F        7.28293071      10.03898215      10.15745593
Li       8.70997394       7.64736826      10.01433952
F       11.04854923       7.65137874       9.84254407
4
Lattice="20.0 0.0 0.0 0.0 20.0 0.0 0.0 0.0 20.0" Properties=species:S:1:pos:R:3 mu="0.1031778036238098 0.7460691455423962 -0.06519284953337667" autoplex_st_units=e*Angstrom,Angstrom^3 provenance=synthetic_point_charge pbc="F F F"
Li       9.18315624       9.32345020      10.02792174
F        9.08915556      10.98487704       9.98177920
F       10.90166732       8.79625201      10.05566770
Li      10.91084444      11.20374799       9.94433230
8
Lattice="20.0 0.0 0.0 0.0 20.0 0.0 0.0 0.0 20.0" Properties=species:S:1:pos:R:3 mu="-0.35441345983152317 0.4416839185482395 -0.0414632137820643" autoplex_st_units=e*Angstrom,Angstrom^3 provenance=synthetic_point_charge pbc="F F F"
Li       8.87044118       8.97208333       9.00660640
F        8.91945324       8.77719448      10.95266687
F        9.07074888      11.04511728       9.00537498
Li       9.03043298      10.99824376      10.95790662
F       11.11503779       8.96964075       9.09833630
Li      11.02417932       9.11600076      10.99462502
Li      10.95533179      11.22280552       9.02610262
F       11.12955882      11.07549694      10.97032574
6
Lattice="20.0 0.0 0.0 0.0 20.0 0.0 0.0 0.0 20.0" Properties=species:S:1:pos:R:3 mu="0.20364632506012992 -2.0256775325271583 -0.1245636520740181" autoplex_st_units=e*Angstrom,Angstrom^3 provenance=synthetic_point_charge pbc="F F F"
Li       7.92659839       9.06494822       9.91082866
F        7.90160526      10.99813145      10.22405930
F        9.97046777       9.03445981      10.03029561
Li      10.13586745      11.01845084      10.11910824
Li      12.09839474       8.96175733       9.87579507
F       12.08514122      11.03824267       9.77594070
2
Lattice="20.0 0.0 0.0 0.0 20.0 0.0 0.0 0.0 20.0" Properties=species:S:1:pos:R:3 mu="-1.612483563098177 0.08968345273107481 -0.2522728434275656" autoplex_st_units=e*Angstrom,Angstrom^3 provenance=synthetic_point_charge pbc="F F F"
Li       9.19375822      10.04484173       9.87386358
F       10.80624178       9.95515827      10.12613642
4
Lattice="20.0 0.0 0.0 0.0 20.0 0.0 0.0 0.0 20.0" Properties=species:S:1:pos:R:3 mu="-0.038321631802864076 0.15583480436849229 0.3790110708258947" autoplex_st_units=e*Angstrom,Angstrom^3 provenance=synthetic_point_charge pbc="F F F"
Li      11.68482646      10.11141613      10.14484818
F        9.91084595      11.98987144       9.85515182
Li       8.31517354      10.04441867      10.12353054
F       10.12747568       8.01012856      10.03421582
6
Lattice="20.0 0.0 0.0 0.0 20.0 0.0 0.0 0.0 20.0" Properties=species:S:1:pos:R:3 mu="-0.04155114049861197 0.13319448405366963 0.029992700520411475" autoplex_st_units=e*Angstrom,Angstrom^3 provenance=synthetic_point_charge pbc="F F F"
Li      12.51553041      10.12268052      10.02973235
F       11.36276494      12.29660699       9.83056813
Li       8.82748968      12.18722065       9.84690891
F        7.48446959      10.06829094       9.96775439
Li       8.90301419       7.89158426      10.12110583
F       11.44035091       7.70339301      10.16943187
4
Lattice="20.0 0.0 0.0 0.0 20.0 0.0 0.0 0.0 20.0" Properties=species:S:1:pos:R:3 mu="0.19022911883423355 0.5214821467067079 -0.23689937051241472" autoplex_st_units=e*Angstrom,Angstrom^3 provenance=synthetic_point_charge pbc="F F F"
Li       9.03410854       8.89416067       9.88306390
F        8.86687834      10.96363288      10.11693610
F       11.11012273       8.70452282      10.01456100
Li      11.13312166      11.29547718      10.01153383
8
Lattice="20.0 0.0 0.0 0.0 20.0 0.0 0.0 0.0 20.0" Properties=species:S:1:pos:R:3 mu="0.4090435616396295 0.4115368090331817 -0.32882175710965456" autoplex_st_units=e*Angstrom,Angstrom^3 provenance=synthetic_point_charge pbc="F F F"
Li       9.17075480       9.06697232       9.12509224
F        8.81095051       8.84915706      11.16736322
F        8.84507884      10.92679655       8.86819323
Li       9.03680750      11.15084294      10.79057716
F       11.12286239       8.95993426       8.83263678
Li      11.18904949       8.97700692      10.81167066
Li      10.78472787      11.09667361       8.86949233
F       10.99340436      11.14407111      11.05746092
6
Lattice="20.0 0.0 0.0 0.0 20.0 0.0 0.0 0.0 20.0" Properties=species:S:1:pos:R:3 mu="0.3951217107541982 -1.8964014889446776 -0.1167305975559163" autoplex_st_units=e*Angstrom,Angstrom^3 provenance=synthetic_point_charge pbc="F F F"
Li       7.96687038       9.02486426      10.04949320
F        7.83512113      11.15707307      10.09627809
F       10.02587065       8.84292693      10.11165295
Li      10.16169485      10.93284095      10.01530224
Li      12.16487887       9.16729558       9.91475205
F       12.03733061      11.02140229       9.88834705
2
Lattice="20.0 0.0 0.0 0.0 20.0 0.0 0.0 0.0 20.0" Properties=species:S:1:pos:R:3 mu="-1.5061492965603804 0.04833613091531497 0.11403116089614151" autoplex_st_units=e*Angstrom,Angstrom^3 provenance=synthetic_point_charge pbc="F F F"
Li       9.24692535      10.02416807      10.05701558
F       10.75307465       9.97583193       9.94298442
4
Lattice="20.0 0.0 0.0 0.0 20.0 0.0 0.0 0.0 20.0" Properties=species:S:1:pos:R:3 mu="0.03715081930919695 0.33365416618637944 -0.04454266803268325" autoplex_st_units=e*Angstrom,Angstrom^3 provenance=synthetic_point_charge pbc="F F F"
Li      11.92994436      10.31736356       9.78521728
F        9.82265246      11.92703262       9.97076252
Li       8.07005564      10.01629061      10.21478272
F       10.14019672       8.07296738      10.07378015
6
Lattice="20.0 0.0 0.0 0.0 20.0 0.0 0.0 0.0 20.0" Properties=species:S:1:pos:R:3 mu="0.25245603496815683 -0.14242576479230884 0.05350171656430547" autoplex_st_units=e*Angstrom,Angstrom^3 provenance=synthetic_point_charge pbc="F F F"
Li      12.83621572       9.86189588       9.99086556
F       11.08793981      12.36438540      10.05419777
Li       8.58469521      12.32807550      10.18568853
F        7.16378428      10.03949400       9.81431147
Li       8.43786003       7.70709684       9.90234035
F       11.35459084       7.63561460      10.15688347
4
Lattice="20.0 0.0 0.0 0.0 20.0 0.0 0.0 0.0 20.0" Properties=species:S:1:pos:R:3 mu="0.24723451662839224 0.0319399200630297 -0.29808333099440176" autoplex_st_units=e*Angstrom,Angstrom^3 provenance=synthetic_point_charge pbc="F F F"
Li       9.09231775       8.98938731      10.00422018
F        8.92359850      10.97103072       9.94036324
F       10.99788624       8.99702936      10.18097014
Li      11.07640150      11.01061269       9.81902986
8
Lattice="20.0 0.0 0.0 0.0 20.0 0.0 0.0 0.0 20.0" Properties=species:S:1:pos:R:3 mu="-0.5581797181613091 0.2553938078080069 0.2096365593288816" autoplex_st_units=e*Angstrom,Angstrom^3 provenance=synthetic_point_charge pbc="F F F"
Li       8.84042244       9.08362247       9.06845785
F        8.93969952       9.04407327      10.86762766
F        9.07356080      10.95334677       8.89494348
Li       9.03390760      10.97589946      10.97045803
F       10.97346165       9.02410054       9.20518585
Li      10.89626379       9.06052497      11.10505652
Li      10.81752597      10.97515242       9.13162098
F       11.15957756      10.81828494      11.09819984
6
Lattice="20.0 0.0 0.0 0.0 20.0 0.0 0.0 0.0 20.0" Properties=species:S:1:pos:R:3 mu="-0.5406045018903773 -2.3882526792400576 0.31995881045235386" autoplex_st_units=e*Angstrom,Angstrom^3 provenance=synthetic_point_charge pbc="F F F"
Li       7.89784028       8.87534830      10.10669673
F        7.97795153      11.12465170       9.95698454
F        9.89627917       9.10139034       9.93721154
Li       9.61410184      10.77582950       9.98893220
Li      11.92384381       9.10601052      10.01182924
F       12.10215972      10.91939897       9.89330327
2
Lattice="20.0 0.0 0.0 0.0 20.0 0.0 0.0 0.0 20.0" Properties=species:S:1:pos:R:3 mu="-1.6090463434116575 -0.055365099482317603 0.2829172300759417" autoplex_st_units=e*Angstrom,Angstrom^3 provenance=synthetic_point_charge pbc="F F F"
Li       9.19547683       9.97231745      10.14145862
F       10.80452317      10.02768255       9.85854138
4
Lattice="20.0 0.0 0.0 0.0 20.0 0.0 0.0 0.0 20.0" Properties=species:S:1:pos:R:3 mu="0.45899840234691247 -0.058054843376227794 -0.2245229671637503" autoplex_st_units=e*Angstrom,Angstrom^3 provenance=synthetic_point_charge pbc="F F F"
Li      11.91310095       9.88291615       9.85715362
F        9.66174786      12.00135932      10.14284638
Li       8.08689905      10.05902900      10.03438329
F        9.87925374       7.99864068       9.97321350
6
Lattice="20.0 0.0 0.0 0.0 20.0 0.0 0.0 0.0 20.0" Properties=species:S:1:pos:R:3 mu="0.28290292683792284 -0.25536554978095527 -0.280982895507913" autoplex_st_units=e*Angstrom,Angstrom^3 provenance=synthetic_point_charge pbc="F F F"
Li      12.60088783       9.56498840      10.22247730
F       11.22254558      12.08227650      10.00859286
Li       8.89462581      12.37867138       9.77752270
F        7.39911217       9.95690168      10.18067438
Li       8.72129785       7.62132862      10.05541378
F       11.31225082       7.78117578      10.14712944
4
Lattice="20.0 0.0 0.0 0.0 20.0 0.0 0.0 0.0 20.0" Properties=species:S:1:pos:R:3 mu="0.02204877437617725 0.10321599935699055 -0.15183645290509595" autoplex_st_units=e*Angstrom,Angstrom^3 provenance=synthetic_point_charge pbc="F F F"
Li       9.20249344       9.21591863       9.90551875
F        9.03842705      10.92212412      10.02274579
F       10.96157295       9.07787588      10.09448125
Li      10.81955533      10.88729737      10.05987183
8
Lattice="20.0 0.0 0.0 0.0 20.0 0.0 0.0 0.0 20.0" Properties=species:S:1:pos:R:3 mu="-0.019499140440116136 0.2627441539368718 0.18476560089256822" autoplex_st_units=e*Angstrom,Angstrom^3 provenance=synthetic_point_charge pbc="F F F"
Li       8.93839920       9.03154389       9.09882742
F        8.99726356       9.02097970      11.18567919
F        8.87028138      11.01997468       8.81432081
Li       8.88849725      11.16865070      11.13521376
F       11.12971862       8.83134930       9.12352619
Li      11.03969805       8.98851696      10.92746794
Li      10.94101663      10.97194885       9.08362660
F       10.82984670      11.02561256      10.93684394
6
Lattice="20.0 0.0 0.0 0.0 20.0 0.0 0.0 0.0 20.0" Properties=species:S:1:pos:R:3 mu="0.32780313886112644 -2.0114768309142423 0.09750245062581797" autoplex_st_units=e*Angstrom,Angstrom^3 provenance=synthetic_point_charge pbc="F F F"
Li       8.09911688       8.91689607       9.88822092
F        7.99843887      10.99446667      10.09430353
F        9.89766412       9.02251662       9.86481178
Li      10.20239018      11.08305200       9.90557092
Li      11.92396020       9.08866233      10.13518822
F       12.00156113      11.08310393       9.87236229
