3
Lattice="17.526478 0.0 0.0 0.0 17.526478 0.0 0.0 0.0 17.526478" Properties=species:S:1:pos:R:3 config_type=ethanol_x1 n_molecules=1 molecule=H2O pbc="T T T"
O        8.77078281       8.75531271       9.09981886
H        8.76953301       9.49433784       8.48678020
H        8.84147900       8.05682486       8.42286039
3
Lattice="17.526478 0.0 0.0 0.0 17.526478 0.0 0.0 0.0 17.526478" Properties=species:S:1:pos:R:3 config_type=ethanol_x1 n_molecules=1 molecule=H2O pbc="T T T"
O        8.68731371       8.72584253       9.06387306
H        8.62373715       9.51335050       8.39032984
H        8.71930296       7.96734446       8.44610649
3
Lattice="17.526478 0.0 0.0 0.0 17.526478 0.0 0.0 0.0 17.526478" Properties=species:S:1:pos:R:3 config_type=ethanol_x1 n_molecules=1 molecule=H2O pbc="T T T"
O        8.78793683       8.82578980       9.05368142
H        8.84522681       9.48656632       8.48617510
H        8.81744721       8.00564074       8.42047455
3
Lattice="17.526478 0.0 0.0 0.0 17.526478 0.0 0.0 0.0 17.526478" Properties=species:S:1:pos:R:3 config_type=ethanol_x1 n_molecules=1 molecule=H2O pbc="T T T"
O        8.70793548       8.73577545       9.07460521
H        8.70266191       9.51392747       8.45553100
H        8.79568974       8.01287955       8.48640686
6
Lattice="21.337858287492253 0.0 0.0 0.0 21.337858287492253 0.0 0.0 0.0 21.337858287492253" Properties=species:S:1:pos:R:3 n_molecules=2 molecule=H2O config_type=H2O_x2 pbc="T T T"
O       10.80067246       8.48631981      10.46265877
H       10.11520287       8.64324064       9.79660660
H       10.34041411       8.00000000      11.16249696
O       10.41738803      13.18865577      10.64036908
H       10.74029254      13.33785829      11.54125169
H       11.22265541      13.02992146      10.12610644
6
Lattice="19.726217070276366 0.0 0.0 0.0 19.726217070276366 0.0 0.0 0.0 19.726217070276366" Properties=species:S:1:pos:R:3 n_molecules=2 molecule=H2O config_type=H2O_x2 pbc="T T T"
O       10.78597095       9.02170260       9.03380826
H       11.72621707       9.24232776       9.10715648
H       10.48165223       9.54201386       8.27566283
O        8.54043869       9.94011036      11.20209788
H        8.00000000      10.70451447      11.45055424
H        8.66435450      10.04131322      10.24683821
6
Lattice="20.09187185011609 0.0 0.0 0.0 20.09187185011609 0.0 0.0 0.0 20.09187185011609" Properties=species:S:1:pos:R:3 n_molecules=2 molecule=H2O config_type=H2O_x2 pbc="T T T"
O        9.31450252      11.51629221       9.00646991
H       10.16169150      11.12854479       8.74181735
H        9.54272314      12.09187185       9.75127970
O       10.12428865       8.60858851      11.35005450
H       10.77736933       9.27246200      11.08382938
H       10.08861915       8.00000000      10.59741521
6
Lattice="22.75132207703595 0.0 0.0 0.0 22.75132207703595 0.0 0.0 0.0 22.75132207703595" Properties=species:S:1:pos:R:3 n_molecules=2 molecule=H2O config_type=H2O_x2 pbc="T T T"
O       11.49037229       8.82605116      10.22033443
H       10.77538036       9.44869977      10.02231058
H       11.20383799       8.00000000       9.80361416
O       11.61569428      13.87390396      12.94770791
H       11.70796611      13.39082225      12.11330024
H       11.97594172      14.75132208      12.75155126
9
Lattice="22.612202243693073 0.0 0.0 0.0 22.612202243693073 0.0 0.0 0.0 22.612202243693073" Properties=species:S:1:pos:R:3 n_molecules=3 molecule=H2O config_type=H2O_x3 pbc="T T T"
O       13.25017076      13.80271033       8.70196873
H       12.46891533      13.44350988       8.25617373
H       13.91510050      13.85951297       8.00000000
O        9.27078002       9.46542058      13.65600340
H        8.69710174       8.75268927      13.33815830
H        9.11728671       9.48096924      14.61220224
O       12.36725136       9.41978627      11.23924866
H       12.32701307       8.86861505      12.03467895
H       12.05993658      10.28773757      11.53980875
9
Lattice="22.679748617871287 0.0 0.0 0.0 22.679748617871287 0.0 0.0 0.0 22.679748617871287" Properties=species:S:1:pos:R:3 n_molecules=3 molecule=H2O config_type=H2O_x3 pbc="T T T"
O       14.49028317      13.60334520      13.20518324
H       13.52355883      13.64913040      13.16689555
H       14.67974862      12.65352451      13.21303837
O        9.19264543      11.77598894      10.27182044
H        9.36392709      11.26552016       9.46671025
H        9.16348599      12.69429727       9.96526258
O        8.87063826       9.34870668      12.06358482
H        8.68260883       9.88279399      12.84940533
H        8.00000000       9.03061822      11.78264541
12
Lattice="22.363668079285574 0.0 0.0 0.0 22.363668079285574 0.0 0.0 0.0 22.363668079285574" Properties=species:S:1:pos:R:3 n_molecules=4 molecule=H2O config_type=H2O_x4 pbc="T T T"
O       12.88464828      13.51897357       9.55821106
H       13.55869256      13.66049884       8.87721686
H       12.66682915      12.57843103       9.48041167
O        8.72922705      11.95203525       8.49606342
H        8.00000000      11.97725508       9.13301717
H        9.51216313      12.15743752       9.02798370
O       10.25977807       9.09067292       8.71020475
H        9.39786932       8.70316924       8.92250735
H       10.85134679       8.73190332       9.38803145
O       14.36366808      11.34621536      13.86760466
H       13.91173858      10.76675539      13.23664977
H       13.85040646      12.16717294      13.84097100
12
Lattice="27.090769882710735 0.0 0.0 0.0 27.090769882710735 0.0 0.0 0.0 27.090769882710735" Properties=species:S:1:pos:R:3 n_molecules=4 molecule=H2O config_type=H2O_x4 pbc="T T T"
O       14.02814651      16.53696108      14.08425415
H       13.40023696      16.09363591      13.49492351
H       14.54247906      17.10626354      13.49309011
O        8.93428843      10.94432591      11.53034139
H        9.39282889      10.55832990      10.76950900
H        8.00000000      10.92423816      11.27574404
O       15.19265210      10.16054680      15.90062023
H       15.13617933      10.41864173      16.83245499
H       16.13508134       9.98450634      15.76294280
O       19.09076988      11.23612425      10.61467987
H       19.04161216      12.15559199      10.91514750
H       18.20782681      11.05854686      10.25831489
