10
Lattice="20.0 0.0 0.0 0.0 20.0 0.0 0.0 0.0 20.0" Properties=species:S:1:pos:R:3 sampled_by=gcmc config_type=gcmc_cluster pbc="T T T"
F       10.13331000       8.31821501      10.73808500
F       11.09511000       9.79762500       8.46569500
F       11.56333000      10.82774500      11.48327500
F        8.96695000      11.11082500      10.47436500
F        8.35999000       9.12527500       8.70793500
Li       8.52413000       9.16234500      10.59660500
Li      11.64001000       9.42403500      10.29580500
Li       9.45563000      10.65913500       8.65814500
Li      10.15525000      11.84552500      11.53430500
Li      10.09286000       8.15447500       8.76886500
14
Lattice="20.0 0.0 0.0 0.0 20.0 0.0 0.0 0.0 20.0" Properties=species:S:1:pos:R:3 sampled_by=gcmc config_type=gcmc_cluster pbc="T T T"
F       11.26824740       7.97571682      10.85118093
F       12.33879755       9.38247596       8.55903727
F       12.69826740      10.48524680      11.59637093
F       10.10188740      10.76832680      10.58746093
F        9.49492740       8.78277680       8.82103093
Li       9.65906740       8.81984680      10.70970094
Li      12.77494740       9.08153680      10.40890094
Li      10.59056740      10.31663680       8.77124094
Li      11.29018740      11.50302680      11.64740094
Li      11.22779740       7.81197681       8.88196093
Li       7.22505260      11.94020859      12.97901854
F        8.40340118      12.11728708      11.96598654
Li       9.46252544      12.18802319       7.42866920
F       10.83742520      11.56389391       7.02098146
16
Lattice="20.0 0.0 0.0 0.0 20.0 0.0 0.0 0.0 20.0" Properties=species:S:1:pos:R:3 sampled_by=gcmc config_type=gcmc_cluster pbc="T T T"
F        9.97407765       7.97571682       9.98523909
F       11.04462780       9.38247596       7.69309542
F       11.40409765      10.48524680      10.73042909
F        8.80771765      10.76832680       9.72151909
F        8.20075765       8.78277680       7.95508909
Li       8.36489765       8.81984680       9.84375909
Li      11.48077765       9.08153680       9.54295909
Li       9.29639765      10.31663680       7.90529909
Li       9.99601765      11.50302680      10.78145909
Li       9.93362765       7.81197681       8.01601909
Li       5.93088285      11.94020859      12.11307670
F        7.10923143      12.11728708      11.10004470
Li       8.16835569      12.18802319       6.56272736
F        9.54325545      11.56389391       6.15503961
Li      14.06911715       9.72002703      12.58678512
F       13.95988585      10.64261010      13.84496039
18
Lattice="20.0 0.0 0.0 0.0 20.0 0.0 0.0 0.0 20.0" Properties=species:S:1:pos:R:3 sampled_by=gcmc config_type=gcmc_cluster pbc="T T T"
F        9.97407765       8.00353808       9.98523909
F       11.04462780       9.41029723       7.69309542
F       11.40409765      10.51306806      10.73042909
F        8.80771765      10.79614807       9.72151909
F        8.20075765       8.81059807       7.95508909
Li       8.36489765       8.84766807       9.84375909
Li      11.48077765       9.10935806       9.54295909
Li       9.29639765      10.34445807       7.90529909
Li       9.99601765      11.53084807      10.78145909
Li       9.93362765       7.83979807       8.01601909
Li       5.93088285      11.96802985      12.11307670
F        7.21761288      12.19760718      11.04153632
Li       8.16835569      12.21584445       6.56272736
F        9.54325545      11.59171518       6.15503961
Li      14.06911715       9.74784828      12.58678512
F       13.95988585      10.67043136      13.84496039
Li       7.82900825       9.13384188      11.93844375
F        7.66273537       7.78415554      12.71096955
20
Lattice="20.0 0.0 0.0 0.0 20.0 0.0 0.0 0.0 20.0" Properties=species:S:1:pos:R:3 sampled_by=gcmc config_type=gcmc_cluster pbc="T T T"
F        9.97407765       9.23427123      10.29938290
F       11.04462780      10.64103037       8.00723923
F       11.40409765      11.74380121      11.04457290
F        8.80771765      12.02688121      10.03566290
F        8.20075765      10.04133121       8.26923290
Li       8.36489765      10.07840121      10.15790290
Li      11.48077765      10.34009121       9.85710290
Li       9.26746701      11.55242074       8.14488464
Li       9.99601765      12.76158121      11.09560290
Li       9.93362765       9.07053122       8.33016290
Li       5.93088285      13.19876300      12.42722051
F        7.21761288      13.42834033      11.35568013
Li       8.16835569      13.44657760       6.87687117
F        9.54325545      12.82244832       6.46918342
Li      14.06911715      10.97858144      12.90092893
F       13.95988585      11.90116451      14.15910420
Li       7.82900825      10.36457503      12.25258756
F        7.66273537       9.01488869      13.02511336
Li       9.87989146       6.55342240       5.84089580
F       10.00752263       8.10708577       5.96713528
22
Lattice="20.0 0.0 0.0 0.0 20.0 0.0 0.0 0.0 20.0" Properties=species:S:1:pos:R:3 sampled_by=gcmc config_type=gcmc_cluster pbc="T T T"
F        9.92529324       7.61778713      10.29938290
F       10.99584339       9.02454627       8.00723923
F       11.35531324      10.12731712      11.04457290
F        8.75893324      10.41039711      10.03566290
F        8.15197324       8.42484711       8.26923290
Li       8.31611324       8.46191711      10.15790290
Li      11.43199324       8.72360712       9.85710290
Li       9.21868260       9.93593664       8.14488464
Li       9.94723324      11.14509711      11.09560290
Li       9.88484324       7.45404712       8.33016290
Li       5.97966726      11.51335191      12.28632747
F        7.16882847      11.81185622      11.35568013
Li       8.11957128      11.83009351       6.87687117
F        9.49447104      11.20596422       6.46918342
Li      14.02033274       9.36209734      12.90092893
F       13.91110144      10.28468040      14.15910420
Li       7.78022384       8.74809094      12.25258756
F        7.61395096       7.39840459      13.02511336
Li       9.83110705       4.93693830       5.84089580
F        9.95873822       6.49060167       5.96713528
Li       7.04475082      15.06306170      13.30816939
F        7.25757867      15.03873966      11.75890868
24
Lattice="20.0 0.0 0.0 0.0 20.0 0.0 0.0 0.0 20.0" Properties=species:S:1:pos:R:3 sampled_by=gcmc config_type=gcmc_cluster pbc="T T T"
F        9.92529324       6.69945191      10.27142827
F       10.99584339       8.10621105       7.97928460
F       11.35531324       9.20898190      11.01661827
F        8.75893324       9.49206189      10.00770827
F        8.15197324       7.50651190       8.24127827
Li       8.31611324       7.54358189      10.12994827
Li      11.43199324       7.80527189       9.82914827
Li       9.21868260       9.01760142       8.11693001
Li       9.94723324      10.22676189      11.06764827
Li       9.88484324       6.53571190       8.30220827
Li       5.97966726      10.59501669      12.25837284
F        7.16882847      10.89352101      11.32772550
Li       8.11957128      10.91175829       6.84891654
F        9.49447104      10.28762900       6.44122879
Li      14.02033274       8.44376212      12.87297430
F       13.91110144       9.36634519      14.13114957
Li       7.78022384       7.82975572      12.22463293
F        7.61395096       6.48006938      12.99715873
Li       9.72142717       3.92187571       5.86885043
F        9.95873822       5.57226645       5.93918065
Li       7.04475082      14.14472648      13.28021476
F        7.25757867      14.12040444      11.73095405
Li       6.79624032      14.71376933       8.72101167
F        7.55459909      16.07812429       8.62342343
26
Lattice="20.0 0.0 0.0 0.0 20.0 0.0 0.0 0.0 20.0" Properties=species:S:1:pos:R:3 sampled_by=gcmc config_type=gcmc_cluster pbc="T T T"
F        9.92529324       5.42512806      10.27142827
F       10.99584339       6.83188721       7.97928460
F       11.35531324       7.93465805      11.01661827
F        8.75893324       8.21773805      10.00770827
F        8.15197324       6.23218805       8.24127827
Li       8.31611324       6.26925805      10.12994827
Li      11.37284357       6.42910167       9.76065187
Li       9.21868260       7.74327757       8.11693001
Li       9.94723324       8.95243805      11.06764827
Li       9.88484324       5.26138806       8.30220827
Li       5.97966726       9.32069284      12.25837284
F        7.16882847       9.61919716      11.32772550
Li       8.11957128       9.63743445       6.84891654
F        9.49447104       9.01330516       6.44122879
Li      14.02033274       7.16943828      12.87297430
F       13.91110144       8.09202134      14.13114957
Li       7.78022384       6.55543187      12.22463293
F        7.61395096       5.20574553      12.99715873
Li       9.72142717       2.64755186       5.86885043
F        9.95873822       4.29794261       5.93918065
Li       7.04475082      12.87040264      13.28021476
F        7.25757867      12.84608060      11.73095405
Li       6.79624032      13.43944549       8.72101167
F        7.55459909      14.80380045       8.62342343
Li       7.91919762      15.99248010      10.48685293
F        7.20662082      17.35244813      10.78487516
28
Lattice="20.0 0.0 0.0 0.0 20.0 0.0 0.0 0.0 20.0" Properties=species:S:1:pos:R:3 sampled_by=gcmc config_type=gcmc_cluster pbc="T T T"
F        9.92529324       5.42512806      10.27142827
F       10.99584339       6.83188721       7.97928460
F       11.35531324       7.93465805      11.01661827
F        8.75893324       8.21773805      10.00770827
F        8.27695184       6.20873058       8.35359600
Li       8.31611324       6.26925805      10.12994827
Li      11.37284357       6.42910167       9.76065187
Li       9.21868260       7.74327757       8.11693001
Li       9.94723324       8.95243805      11.06764827
Li       9.88484324       5.26138806       8.30220827
Li       5.97966726       9.32069284      12.25837284
F        7.16882847       9.61919716      11.32772550
Li       8.11957128       9.63743445       6.84891654
F        9.49447104       9.01330516       6.44122879
Li      14.02033274       7.16943828      12.87297430
F       13.91110144       8.09202134      14.13114957
Li       7.78022384       6.55543187      12.22463293
F        7.61395096       5.20574553      12.99715873
Li       9.72142717       2.64755186       5.86885043
F        9.95873822       4.29794261       5.93918065
Li       6.98512026      12.75989705      13.40385141
F        7.25757867      12.84608060      11.73095405
Li       6.79624032      13.43944549       8.72101167
F        7.55459909      14.80380045       8.62342343
Li       7.91919762      15.99248010      10.48685293
F        7.20662082      17.35244813      10.78487516
Li       6.50408757       3.34104288       8.51835368
F        6.73573640       3.04568543      10.03664179
30
Lattice="20.0 0.0 0.0 0.0 20.0 0.0 0.0 0.0 20.0" Properties=species:S:1:pos:R:3 sampled_by=gcmc config_type=gcmc_cluster pbc="T T T"
F       10.60278679       6.74186207      10.30100839
F       11.72975560       8.07358555       7.97928460
F       12.08922545       9.17635638      11.01661827
F        9.49284545       9.45943639      10.00770827
F        9.01086405       7.45042891       8.35359600
Li       9.05002545       7.51095638      10.12994827
Li      12.10675578       7.67080000       9.76065187
Li       9.95259481       8.98497590       8.11693001
Li      10.68114545      10.19413639      11.06764827
Li      10.61875545       6.50308639       8.30220827
Li       6.71357947      10.56239117      12.25837284
F        7.90274068      10.86089550      11.32772550
Li       8.85348349      10.87913277       6.84891654
F       10.22838325      10.25500350       6.44122879
Li      14.75424495       8.41113660      12.87297430
F       14.64501365       9.33371968      14.13114957
Li      10.45533938       3.88925019       5.86885043
F       10.69265043       5.53964094       5.93918065
Li       7.71903247      14.00159539      13.40385141
F        7.99149088      14.08777893      11.73095405
Li       7.53015253      14.68114382       8.72101167
F        8.28851130      16.04549878       8.62342343
Li       8.65310983      17.23417844      10.48685293
F        7.94053303      18.59414647      10.78487516
Li       7.25138763       4.64599456       8.63346445
F        7.46964861       4.28738376      10.03664179
Li       5.24575505       6.54867576       7.55466159
F        5.65747457       6.71232243       9.05459585
Li       8.26564172       2.24998885      10.74580034
F        8.76595626       1.40585353       9.56200221
32
Lattice="20.0 0.0 0.0 0.0 20.0 0.0 0.0 0.0 20.0" Properties=species:S:1:pos:R:3 sampled_by=gcmc config_type=gcmc_cluster pbc="T T T"
F       10.60278679       6.81601034      10.30100839
F       11.72975560       8.14773382       7.97928460
F       12.08922545       9.25050466      11.01661827
F        9.49284545       9.53358466      10.00770827
F        9.01086405       7.52457719       8.35359600
Li       9.05002545       7.58510466      10.12994827
Li      12.10675578       7.74494828       9.76065187
Li       9.95259481       9.05912418       8.11693001
Li      10.68114545      10.26828466      11.06764827
Li      10.61875545       6.57723466       8.30220827
Li       6.71357947      10.63653945      12.25837284
F        7.90274068      10.93504377      11.32772550
Li       8.85348349      10.95328105       6.84891654
F       10.22838325      10.32915177       6.44122879
Li      14.75424495       8.48528488      12.87297430
F       14.64501365       9.40786795      14.13114957
Li       8.51413605       7.87127848      12.22463293
F        8.34786317       6.52159214      12.99715873
Li      10.45533938       3.96339847       5.86885043
F       10.69265043       5.61378921       5.93918065
Li       7.71903247      14.07574366      13.40385141
F        7.99149088      14.16192720      11.73095405
Li       7.53015253      14.75529209       8.72101167
F        8.28851130      16.11964706       8.62342343
Li       8.65310983      17.30832671      10.48685293
F        7.94053303      18.66829474      10.78487516
Li       7.23799978       4.65688949       8.51835368
F        7.46964861       4.36153204      10.03664179
Li       5.24575505       6.62282403       7.55466159
F        5.65747457       6.78647071       9.05459585
Li       8.26564172       2.32413713      10.74580034
F        8.77061746       1.33170526       9.64754059
36
Lattice="20.0 0.0 0.0 0.0 20.0 0.0 0.0 0.0 20.0" Properties=species:S:1:pos:R:3 sampled_by=gcmc config_type=gcmc_cluster pbc="T T T"
F       11.66164479       6.74186207       9.29200253
F       12.78861360       8.07358555       6.97027874
F       13.14808345       9.17635638      10.00761241
F       10.55170345       9.45943639       8.99870241
F       10.06972205       7.45042891       7.34459014
Li      10.10888345       7.51095638       9.12094241
Li      13.16561378       7.67080000       8.75164601
Li      11.01145281       8.98497590       7.10792415
Li      11.74000345      10.19413639      10.05864241
Li      11.67761345       6.50308639       7.29320241
Li       7.77243747      10.56239117      11.24936698
F        8.96159868      10.86089550      10.31871964
Li       9.91234149      10.87913277       5.83991068
F       11.28724125      10.25500350       5.43222293
Li      15.81310295       8.41113660      11.86396844
F       15.70387165       9.33371968      13.12214371
Li      11.51419738       3.88925019       4.85984457
F       11.75150843       5.53964094       4.93017479
Li       8.77789047      14.00159539      12.39484555
F        9.05034888      14.08777893      10.72194819
Li       8.58901053      14.68114382       7.71200581
F        9.34736930      16.04549878       7.61441757
Li       9.71196783      17.23417844       9.47784707
F        8.99939103      18.59414647       9.77586930
Li       8.31024563       4.64599456       7.62445859
F        8.52850661       4.28738376       9.02763593
Li       6.30461305       6.54867576       6.54565573
F        6.71633257       6.71232243       8.04558999
Li       9.32449972       2.24998885       9.73679448
F        9.82481426       1.40585353       8.55299635
Li      14.51325745       7.61670376      14.49393387
F       13.08977076       7.66338732      15.14015543
Li      11.28944330       2.70346298       7.08670637
F       12.63637343       2.90411762       7.85587017
Li       4.77917645       5.08799318       7.97443591
F        4.18689705       4.56020290       6.62657147
38
Lattice="20.0 0.0 0.0 0.0 20.0 0.0 0.0 0.0 20.0" Properties=species:S:1:pos:R:3 sampled_by=gcmc config_type=gcmc_cluster pbc="T T T"
F       11.65418012       6.74186207       8.36544672
F       12.78114893       8.07358555       6.04372293
F       13.21035393       9.16006667       9.10708950
F       10.54423878       9.45943639       8.07214660
F       10.06225738       7.45042891       6.41803433
Li      10.10141878       7.51095638       8.19438660
Li      13.15814911       7.67080000       7.82509020
Li      11.00398814       8.98497590       6.18136834
Li      11.73253878      10.19413639       9.13208660
Li      11.67014878       6.50308639       6.36664660
Li       7.76497280      10.56239117      10.32281117
F        8.95413401      10.86089550       9.39216383
Li       9.90487682      10.87913277       4.91335487
F       11.27977658      10.25500350       4.50566712
Li      15.80563828       8.41113660      10.93741263
F       15.69640698       9.33371968      12.19558790
Li      11.50673271       3.88925019       3.93328876
F       11.74404376       5.53964094       4.00361898
Li       8.77042580      14.00159539      11.46828974
F        9.04288421      14.08777893       9.79539238
Li       8.58154586      14.68114382       6.78545000
F        9.33990463      16.04549878       6.68786176
Li       9.70450316      17.23417844       8.55129126
F        8.99192636      18.59414647       8.84931349
Li       8.30278096       4.64599456       6.69790278
F        8.52104194       4.28738376       8.10108012
Li       6.29714838       6.54867576       5.61909992
F        6.70886790       6.71232243       7.11903418
Li       9.31703505       2.24998885       8.81023867
F        9.81734959       1.40585353       7.62644054
Li      14.50579278       7.61670376      13.56737806
F       13.08230609       7.66338732      14.21359962
Li      11.28197863       2.70346298       6.16015056
F       12.62890876       2.90411762       6.92931436
Li       4.77171178       5.08799318       7.04788010
F        4.19436172       4.48745534       5.69722695
Li      12.25376872       8.36665160      15.87627474
F       12.69876760       9.85386575      16.06671124
40
Lattice="20.0 0.0 0.0 0.0 20.0 0.0 0.0 0.0 20.0" Properties=species:S:1:pos:R:3 sampled_by=gcmc config_type=gcmc_cluster pbc="T T T"
F       11.65418012       6.74186207       8.36544672
F       12.78114893       8.07358555       6.04372293
F       13.21035393       9.16006667       9.10708950
F       10.54423878       9.45943639       8.07214660
F       10.06225738       7.45042891       6.41803433
Li      10.10141878       7.51095638       8.19438660
Li      13.15814911       7.67080000       7.82509020
Li      11.00398814       8.98497590       6.18136834
Li      11.73253878      10.19413639       9.13208660
Li      11.67014878       6.50308639       6.36664660
Li       7.76497280      10.56239117      10.32281117
F        8.95413401      10.86089550       9.39216383
Li       9.90487682      10.87913277       4.91335487
F       11.27977658      10.25500350       4.50566712
Li      15.80563828       8.41113660      10.93741263
F       15.69640698       9.33371968      12.19558790
Li      11.50673271       3.88925019       3.93328876
F       11.74404376       5.53964094       4.00361898
Li       8.77042580      14.00159539      11.46828974
F        9.04288421      14.08777893       9.79539238
Li       8.58154586      14.68114382       6.78545000
F        9.33990463      16.04549878       6.68786176
Li       9.70450316      17.23417844       8.55129126
F        8.99192636      18.59414647       8.84931349
Li       8.30278096       4.64599456       6.69790278
F        8.52104194       4.28738376       8.10108012
Li       6.29714838       6.54867576       5.61909992
F        6.70886790       6.71232243       7.11903418
Li       9.31703505       2.24998885       8.81023867
F        9.81734959       1.40585353       7.62644054
Li      14.50579278       7.61670376      13.56737806
F       13.08230609       7.66338732      14.21359962
Li      11.28197863       2.70346298       6.16015056
F       12.62890876       2.90411762       6.92931436
Li       4.77171178       5.08799318       7.04788010
F        4.19436172       4.48745534       5.69722695
Li      12.25376872       8.36665160      15.87627474
F       12.69876760       9.85386575      16.06671124
Li       6.76712955      10.00114896       8.42230632
F        6.11589350       8.98321793       9.41518296
12
Lattice="20.0 0.0 0.0 0.0 20.0 0.0 0.0 0.0 20.0" Properties=species:S:1:pos:R:3 config_type=nano_gap_9 pbc="T T T"
F       11.96387000       9.75390000       9.89153500
F        9.68561000      10.75254000       8.16339500
F        8.94813000       9.30128000      10.55622500
F       10.46004000       7.28633000       9.45236500
F        9.47537000      11.91204000      10.55577500
F       10.93604000       8.30400000      11.83660500
Li      11.47271000      10.62573000       8.33736500
Li      10.65301000      10.09519000      11.39531500
Li       9.27933000       8.75700000       8.76366500
Li      11.86330000       7.98934000      10.21228500
Li       9.36970000       7.69720000      11.19047500
Li       8.03613000      12.71367000      10.14171500
12
Lattice="20.0 0.0 0.0 0.0 20.0 0.0 0.0 0.0 20.0" Properties=species:S:1:pos:R:3 config_type=nano_gap_9 pbc="T T T"
F        9.71516500      11.65958000       8.92527000
F        8.10686500       9.69251000      10.65835000
F        9.91551500      11.26675000      11.47686000
F       10.59061500       8.33926000      11.14480000
F       10.06452500       8.68631000       8.63683000
F       11.89313500      10.46788000       9.44850000
Li      10.42698500      10.23772000       7.99461000
Li       8.58403500      11.37688000      10.20871000
Li       8.91739500       8.20699000       9.94610000
Li      11.07369500      11.79301000      10.09477000
Li       9.58209500       9.59844000      12.00539000
Li      11.62125500       8.74945000       9.76508000
12
Lattice="20.0 0.0 0.0 0.0 20.0 0.0 0.0 0.0 20.0" Properties=species:S:1:pos:R:3 config_type=nano_gap_9 pbc="T T T"
F        9.61158000      10.41820500      11.98473000
F       11.88598000       9.97990500      10.59061000
F        9.77660000      12.07653500       9.78266000
F       10.19250000       9.41991500       8.01527000
F       10.29331000       7.92346500      10.37169000
F        8.11402000       9.97880500       9.54006000
Li      10.72005000       8.96443500      11.75521000
Li      10.94071000      11.49579500      10.94273000
Li       9.06611000       8.52932500       9.12657000
Li       8.32413000      10.99159500      11.00492000
Li       9.45789000      11.06495500       8.27692000
Li      11.61468000       9.01516500       9.15990000
36
Lattice="20.0 0.0 0.0 0.0 20.0 0.0 0.0 0.0 20.0" Properties=species:S:1:pos:R:3 config_type=nano_gap_9 pbc="T T T"
F       13.49249000       7.63185500       9.09857000
F        8.92632000      12.59653500      10.25388000
F        8.80355000      11.04659500       7.06490000
F       14.10915000      10.85448500      10.18576000
F        6.25109000      10.26301500       9.33996000
F       10.87303000       7.87355500       8.85286000
F        7.39351000      10.89195500      11.85083000
F        9.91830000      10.01825500      13.02902000
F        7.45712000       7.71852500       9.19512000
F        8.67940000      12.86236500      13.40338000
F       11.10642000      12.36373500      11.92487000
F        9.15202000       7.82759500      11.50917000
F       12.06700000      12.58384500       9.30826000
F        9.43513000      10.03673500       9.86722000
F       12.38517000       7.64185500      11.52153000
F        6.55788000       8.50754500      11.94277000
F       11.90275000      10.01197500      10.92670000
F       12.27892000      10.19442500       7.76009000
Li       5.89085000       9.98432500      11.17795000
Li      10.57554000      13.11039500      10.35469000
Li      11.02199000       8.54613500      12.13610000
Li       6.94430000       9.12408500       8.11740000
Li       9.72082000      12.41990500       6.53508000
Li       7.93194000      12.55108500      11.82120000
Li      13.46760000      11.49670500       8.54383000
Li      12.54885000       8.41259500       7.80835000
Li       8.00256000      11.05782500       9.88680000
Li      10.06126000      11.88294500      13.46492000
Li      13.61351000       8.90711500      10.59612000
Li      12.14467000       6.88960500       9.86737000
Li       9.23057000       8.11274500       9.54339000
Li      10.25628000      10.56907500      11.41641000
Li      12.67937000      11.66004500      11.00333000
Li      11.16427000       9.83240500       9.17370000
Li       8.13733000       9.15197500      12.57124000
Li       7.30491000       7.19480500      10.86988000
